POSCAR file written by OVITO
1
23.8278332 0.0 0.0
-0.4865316 23.9664308 0.0
-0.5117017 -0.5744742 24.5068627
H C 
4 1 
Cartesian
11.7446127 10.3499527 9.9979878
12.3634424 11.6512432 10.9255276
11.5731831 10.2947025 11.8284283
10.5362625 11.4531031 10.8261681
11.5289822 10.9426232 10.9130574
