 H  C 
 1.0000000000000000
    10.2294956031949731    0.0000000000000000    0.0000000000000000
    -0.0214996858850794   10.0043944385224037    0.0000000000000000
    -0.1211518221996337    0.0601975725144787    9.9861598592070404
   H   C
   4   1
Cartesian
  5.4366519172908188  4.0771473026258276  3.5933657219300201
  3.9496927125735897  4.8539662581278193  4.4181797933692470
  5.6299607694679601  5.6822077974722323  4.4268381553584426
  5.3400779916408734  4.1712965616586200  5.3557787123210021
  5.0745049866875265  4.7165110092063784  4.4308797375861291
