POSCAR file written by OVITO
1
15.3673697 0.0 0.0
-0.1109371 15.2979736 0.0
0.0055518 -0.3317156 15.0824575
H C 
4 1 
Cartesian
8.2099266 6.7408314 5.786438
6.6488571 6.8276415 6.4980483
7.8615274 8.0030012 7.0903683
7.9622374 6.2995615 7.5618081
7.6916971 7.0052414 6.7139483
