Al1 
1.0
9.0778928724851427e-01 0.0000000000000000e+00 0.0000000000000000e+00 
5.0174477170218057e-01 8.7638477359290260e-03 0.0000000000000000e+00 
5.7691634780896750e-01 6.9486384276072335e-03 1.1319556047435765e-02 
Al 
1 
cartesian
   0.0000000000    0.0000000000    0.0000000000
