POSCAR file written by OVITO
1
9.463212 0.0 0.0
-0.2647242 9.5110255 0.0
-0.2397282 -0.1001551 9.1544437
H C 
4 1 
Cartesian
4.6883388 4.9163108 4.9836268
5.5031286 4.1452007 3.6563468
4.0105386 5.0652008 3.3565369
3.9715388 3.4431806 4.3275671
4.5287385 4.4024611 4.074367
