POSCAR file written by OVITO
1
10.3180733 0.0 0.0
7.2906623e-05 10.1232939 0.0
0.0661063 -0.1033379 10.4723892
H C 
4 1 
Cartesian
5.1598487 4.6941452 3.5464776
5.3320789 3.6371451 4.9855376
4.4212189 5.3258653 5.1084876
6.1752591 5.1162553 5.0882678
5.2056089 4.6817651 4.6545077
