 H  C 
 1.0000000000000000
    10.0758740983550776    0.0000000000000000    0.0000000000000000
    -0.2667444437191396   10.2402368725724866    0.0000000000000000
    -0.1077074664818883   -0.0242486373215307   10.0670805026928942
   H   C
   4   1
Cartesian
  5.2581631226266268  4.1414146922949495  3.6222054940905202
  3.7848359047953610  4.9276646601658660  4.4506447984903161
  5.4078722883579022  5.7735077620562905  4.4563068252290181
  5.1614510773958822  4.2257201262308417  5.4013237375587027
  4.8842765115489248  4.7867963922978394  4.4741572759766246
