 H  C 
 1.0000000000000000
     9.7265517443182770    0.0000000000000000    0.0000000000000000
    -0.3039643700879950   10.1677783190950937    0.0000000000000000
    -0.0055324785822644   -0.2774019219914178    9.9430278032649859
   H   C
   4   1
Cartesian
  5.0912190858818152  4.0227828806632289  3.5763681513590555
  3.6672877878144021  4.7794705842073562  4.3946512940060787
  5.2431042592190131  5.6221031099636809  4.4028217957305618
  5.0134326527844593  4.0610225253743986  5.3395992145703017
  4.7431969221755068  4.6450349023844364  4.4220331255784808
