Al1 
1.0
9.9242002811213836e-01 0.0000000000000000e+00 0.0000000000000000e+00 
7.3678428169130761e-01 1.3088540016532589e-02 0.0000000000000000e+00 
6.7762054769321078e-01 1.4681922343327957e-03 1.2965836382839194e-02 
Al 
1 
cartesian
   0.0000000000    0.0000000000    0.0000000000
