 H  C 
 1.0000000000000000
    10.2597947834121292    0.0000000000000000    0.0000000000000000
     0.2988386743037175   10.2397200931253085    0.0000000000000000
    -0.2054415359316695   -0.1638330796567481   10.1243357489176571
   H   C
   4   1
Cartesian
  5.5505872570245742  4.0931742098072839  3.6435787078711508
  4.0805863481022406  4.8724182803928153  4.4740536169410037
  5.7841450221552266  5.7117885529538350  4.4894025188659521
  5.4350926481484656  4.1513775942150000  5.4328710260120534
  5.2043643603792571  4.7251100173265712  4.4950009871263275
