POSCAR file written by OVITO
1
10.4449101 0.0 0.0
7.3802838e-05 10.2477369 0.0
0.066919 -0.1046082 10.6011238
H C 
4 1 
Cartesian
4.7996073 4.7002764 3.7550848
5.9594374 3.8570962 4.792305
4.4517775 4.647336 5.385705
5.7926975 5.6843763 4.893815
5.2982774 4.7489062 4.7227249
