 H  C 
 1.0000000000000000
     9.8882992437977091    0.0000000000000000    0.0000000000000000
     0.2133294242942642   10.0907987919268987    0.0000000000000000
     0.0527356368740020    0.0794371940077181   10.2274930678383242
   H   C
   4   1
Cartesian
  5.4081799516043931  4.1126367571382314  3.6856555564146181
  4.0096372817161336  4.9021616099304204  4.5293492812254552
  5.6453720889303982  5.7368124662928981  4.5314116479343953
  5.3454390524770483  4.2292137991405898  5.4868959071204007
  5.0833420901098281  4.7654055559952422  4.5382160755100260
