POSCAR file written by OVITO
1
10.1597328 0.0 0.0
7.1787815e-05 9.9679442 0.0
0.0650919 -0.1017521 10.3116818
H C 
4 1 
Cartesian
5.3993497 4.3311696 3.5687642
4.1201396 4.1943297 4.7114845
5.1426396 5.7022 4.5386744
5.7595496 4.2877197 5.4244943
5.1543198 4.60741 4.5995746
