Al1 
1.0
7.2216474674443032e-01 0.0000000000000000e+00 0.0000000000000000e+00 
6.6935422004335077e-01 1.6694693700306504e-02 0.0000000000000000e+00 
8.9534541552420710e-01 1.7436949895310000e-02 2.3785962099237896e-02 
Al 
1 
cartesian
   0.0000000000    0.0000000000    0.0000000000
