Cu1                                     
   1.00000000000000     
     0.0000000000000000    1.8172836223538702    1.8172836223538702
     1.8172836223538702    0.0000000000000000    1.8172836223538702
     1.8172836223538702    1.8172836223538702   -0.0000000000000000
   Cu
     1
Direct
  0.0000000000000000  0.0000000000000000  0.0000000000000000
 
  0.00000000E+00  0.00000000E+00  0.00000000E+00
