Cu1
1.0
0.000000 2.025000 2.025000
2.025000 0.000000 2.025000
2.025000 2.025000 0.000000
Cu
1
direct
0.000000 0.000000 0.000000 Cu
