Al1 
1.0
5.9990177759298668e-01 0.0000000000000000e+00 0.0000000000000000e+00 
9.2886495622654708e-01 2.5044515831327989e-02 0.0000000000000000e+00 
6.1638694777449798e-01 3.5946492305453936e-03 1.3705944562333917e-02 
Al 
1 
cartesian
   0.0000000000    0.0000000000    0.0000000000
