 H  C 
 1.0000000000000000
     9.7558421711481262    0.0000000000000000    0.0000000000000000
     0.0753922281434563    9.7018664588486292    0.0000000000000000
     0.0937631766546020    0.0097354398793156   10.2742348636989203
   H   C
   4   1
Cartesian
  5.2988451023974568  3.9333027876885374  3.6934396109759287
  3.9112698324202326  4.6853364877559409  4.5430218554855069
  5.5154841736796119  5.4911004528105174  4.5474419356444677
  5.2406073618515912  4.0300983143560627  5.5152717735873615
  4.9697957020638226  4.5569682407086418  4.5577928157776286
