H4 C1 
1.0
9.7438942379999993e+00 0.0000000000000000e+00 0.0000000000000000e+00 
2.9048353300000002e-01 9.9589847690000006e+00 0.0000000000000000e+00 
-1.1129637900000000e-01 1.9287959599999999e-01 9.8715292659999996e+00 
H C 
4 1 
cartesian
   5.3353600000    4.1662800000    3.5623900000
   3.8729900000    4.9069800000    4.3606800000
   5.4692000000    5.7261000000    4.3567200000
   5.2443800000    4.1821100000    5.3453400000
   4.9849000000    4.7599500000    4.3871400000
