Cubic BN
   3.57
 0.00 0.50 0.50
 0.45 0.00 0.50
 0.55 0.51 0.00
 O H
   1 1
Selective dynamics
Cartesian
 0.00 0.00 0.00 T T F
 0.25 0.25 0.25 F F F
