POSCAR file written by OVITO
1
6.5563202 0.0 0.0
0.0744119 6.7087794 0.0
0.1579126 0.1757232 6.5737171
H C 
4 1 
Cartesian
4.3527699 3.33812 3.501889
3.6246698 2.6321602 2.0226092
3.0463798 4.2223802 2.674989
2.6616295 2.7287998 3.4667194
3.3969495 3.2076001 2.9325192
