Al 
 1.0000000000000000
     8.2095456552916222    0.0000000000000000    0.0000000000000000
    -0.2286402743603651    8.6043644363763701    0.0000000000000000
    -0.0854312756696513    0.2303641815368059    8.2540862211675634
  Al
  32
Cartesian
  4.0306771832041433  2.2066722958454528  2.0659499762400642
  3.9151098746436204  6.5167215563456802  2.0596964734510785
  4.1077432130635714  0.0034764787551480 -0.0006236073814073
  6.1379489191490046  0.0621351322778998  2.0578263563441910
  3.9920482810774476  4.3011538909470639  0.0006335990343001
 -0.1949340111748481  6.5111390966709761  2.0643396931358104
 -0.0463856323727473  0.1142994955204610  4.1244311196037833
  6.0952948094811621  0.1729888932314524  6.1926808591164919
  4.0664344218920485  0.1100139469701655  4.1206812470148089
  6.0998444929030891  2.1505475346234428 -0.0008449794097100
  3.9863296520655518  2.3222885078447568  6.1918144614588400
 -0.1209016406533330  2.3228404619168743  6.1906560340571639
  1.8807466235222732  6.4532438855725953 -0.0001516652152993
 -0.2395163861307614  6.6235798336430829  6.1872455636950026
  0.0025147768770161 -0.0036452495960412  0.0013932280132470
 -0.0774171953107122  2.2090747731610469  2.0631980492036508
  1.9926291269205347  0.1692401152050739  6.1955859284074473
  1.8357205748765402  6.5677154774808173  4.1263622066414323
  6.0605653449404215  2.2579040246556001  4.1295688716429204
 -0.1145731952354822  4.3025332838938875  0.0002034325056423
  2.0285609270479301  0.0566514378431752  2.0691391271530861
  3.9484454855523943  4.4183019897368441  4.1259239183811047
 -0.1562941091523503  4.4148144783033310  4.1218372204552605
  5.9888446160288860  6.4572474392376282 -0.0053712419664877
  1.8705640110869806  4.4688581130775136  6.1928385980937639
  6.0243391462447384  4.3596689965884412  2.0572276103221316
  1.9548418838285899  2.2603793712918661  4.1249155308753114
  3.8725040967945219  6.6258873546504624  6.1934468686522104
  1.9164525698273898  4.3586937734571798  2.0631666976308018
  5.9422421861362489  6.5697524312290252  4.1250284026673434
  1.9946789721739846  2.1477356173779114 -0.0011905739695201
  5.9756996701929497  4.4740331240564739  6.1925671609051642
