Mo500 
1.0
1.3677680000000001e+01 0.0000000000000000e+00 0.0000000000000000e+00 
-4.5592269999999999e+00 1.2895441000000000e+01 0.0000000000000000e+00 
0.0000000000000000e+00 0.0000000000000000e+00 6.2437561000000002e+01 
Mo 
500 
Cartesian
   0.0000000000    0.0000000000   10.0902844830
   0.9118453000    1.2895441000   12.1932439750
   2.7355360000    0.0000000000   10.0902844830
   3.6473813000    1.2895441000   12.1932439750
   5.4710720000    0.0000000000   10.0902844830
   6.3829173000    1.2895441000   12.1932439750
   8.2066080000    0.0000000000   10.0902844830
   9.1184533000    1.2895441000   12.1932439750
  10.9421440000    0.0000000000   10.0902844830
  11.8539893000    1.2895441000   12.1932439750
  -0.9118454000    2.5790882000   10.0902844830
  -0.0000001000    3.8686323000   12.1932439750
   1.8236906000    2.5790882000   10.0902844830
   2.7355359000    3.8686323000   12.1932439750
   4.5592266000    2.5790882000   10.0902844830
   5.4710719000    3.8686323000   12.1932439750
   7.2947626000    2.5790882000   10.0902844830
   8.2066079000    3.8686323000   12.1932439750
  10.0302986000    2.5790882000   10.0902844830
  10.9421439000    3.8686323000   12.1932439750
  -1.8236908000    5.1581764000   10.0902844830
  -0.9118455000    6.4477205000   12.1932439750
   0.9118452000    5.1581764000   10.0902844830
   1.8236905000    6.4477205000   12.1932439750
   3.6473812000    5.1581764000   10.0902844830
   4.5592265000    6.4477205000   12.1932439750
   6.3829172000    5.1581764000   10.0902844830
   7.2947625000    6.4477205000   12.1932439750
   9.1184532000    5.1581764000   10.0902844830
  10.0302985000    6.4477205000   12.1932439750
  -2.7355362000    7.7372646000   10.0902844830
  -1.8236909000    9.0268087000   12.1932439750
  -0.0000002000    7.7372646000   10.0902844830
   0.9118451000    9.0268087000   12.1932439750
   2.7355358000    7.7372646000   10.0902844830
   3.6473811000    9.0268087000   12.1932439750
   5.4710718000    7.7372646000   10.0902844830
   6.3829171000    9.0268087000   12.1932439750
   8.2066078000    7.7372646000   10.0902844830
   9.1184531000    9.0268087000   12.1932439750
  -3.6473816000   10.3163528000   10.0902844830
  -2.7355363000   11.6058969000   12.1932439750
  -0.9118456000   10.3163528000   10.0902844830
  -0.0000003000   11.6058969000   12.1932439750
   1.8236904000   10.3163528000   10.0902844830
   2.7355357000   11.6058969000   12.1932439750
   4.5592264000   10.3163528000   10.0902844830
   5.4710717000   11.6058969000   12.1932439750
   7.2947624000   10.3163528000   10.0902844830
   8.2066077000   11.6058969000   12.1932439750
   0.0000000000    0.0000000000   14.4270725949
   0.9118453000    1.2895441000   16.6547198963
   2.7355360000    0.0000000000   14.4270725949
   3.6473813000    1.2895441000   16.6547198963
   5.4710720000    0.0000000000   14.4270725949
   6.3829173000    1.2895441000   16.6547198963
   8.2066080000    0.0000000000   14.4270725949
   9.1184533000    1.2895441000   16.6547198963
  10.9421440000    0.0000000000   14.4270725949
  11.8539893000    1.2895441000   16.6547198963
  -0.9118454000    2.5790882000   14.4270725949
  -0.0000001000    3.8686323000   16.6547198963
   1.8236906000    2.5790882000   14.4270725949
   2.7355359000    3.8686323000   16.6547198963
   4.5592266000    2.5790882000   14.4270725949
   5.4710719000    3.8686323000   16.6547198963
   7.2947626000    2.5790882000   14.4270725949
   8.2066079000    3.8686323000   16.6547198963
  10.0302986000    2.5790882000   14.4270725949
  10.9421439000    3.8686323000   16.6547198963
  -1.8236908000    5.1581764000   14.4270725949
  -0.9118455000    6.4477205000   16.6547198963
   0.9118452000    5.1581764000   14.4270725949
   1.8236905000    6.4477205000   16.6547198963
   3.6473812000    5.1581764000   14.4270725949
   4.5592265000    6.4477205000   16.6547198963
   6.3829172000    5.1581764000   14.4270725949
   7.2947625000    6.4477205000   16.6547198963
   9.1184532000    5.1581764000   14.4270725949
  10.0302985000    6.4477205000   16.6547198963
  -2.7355362000    7.7372646000   14.4270725949
  -1.8236909000    9.0268087000   16.6547198963
  -0.0000002000    7.7372646000   14.4270725949
   0.9118451000    9.0268087000   16.6547198963
   2.7355358000    7.7372646000   14.4270725949
   3.6473811000    9.0268087000   16.6547198963
   5.4710718000    7.7372646000   14.4270725949
   6.3829171000    9.0268087000   16.6547198963
   8.2066078000    7.7372646000   14.4270725949
   9.1184531000    9.0268087000   16.6547198963
  -3.6473816000   10.3163528000   14.4270725949
  -2.7355363000   11.6058969000   16.6547198963
  -0.9118456000   10.3163528000   14.4270725949
  -0.0000003000   11.6058969000   16.6547198963
   1.8236904000   10.3163528000   14.4270725949
   2.7355357000   11.6058969000   16.6547198963
   4.5592264000   10.3163528000   14.4270725949
   5.4710717000   11.6058969000   16.6547198963
   7.2947624000   10.3163528000   14.4270725949
   8.2066077000   11.6058969000   16.6547198963
   0.0000000000    0.0000000000   18.8864256391
   0.9118453000    1.2895441000   21.1193801331
   2.7355360000    0.0000000000   18.8864256391
   3.6473813000    1.2895441000   21.1193801331
   5.4710720000    0.0000000000   18.8864256391
   6.3829173000    1.2895441000   21.1193801331
   8.2066080000    0.0000000000   18.8864256391
   9.1184533000    1.2895441000   21.1193801331
  10.9421440000    0.0000000000   18.8864256391
  11.8539893000    1.2895441000   21.1193801331
  -0.9118454000    2.5790882000   18.8864256391
  -0.0000001000    3.8686323000   21.1193801331
   1.8236906000    2.5790882000   18.8864256391
   2.7355359000    3.8686323000   21.1193801331
   4.5592266000    2.5790882000   18.8864256391
   5.4710719000    3.8686323000   21.1193801331
   7.2947626000    2.5790882000   18.8864256391
   8.2066079000    3.8686323000   21.1193801331
  10.0302986000    2.5790882000   18.8864256391
  10.9421439000    3.8686323000   21.1193801331
  -1.8236908000    5.1581764000   18.8864256391
  -0.9118455000    6.4477205000   21.1193801331
   0.9118452000    5.1581764000   18.8864256391
   1.8236905000    6.4477205000   21.1193801331
   3.6473812000    5.1581764000   18.8864256391
   4.5592265000    6.4477205000   21.1193801331
   6.3829172000    5.1581764000   18.8864256391
   7.2947625000    6.4477205000   21.1193801331
   9.1184532000    5.1581764000   18.8864256391
  10.0302985000    6.4477205000   21.1193801331
  -2.7355362000    7.7372646000   18.8864256391
  -1.8236909000    9.0268087000   21.1193801331
  -0.0000002000    7.7372646000   18.8864256391
   0.9118451000    9.0268087000   21.1193801331
   2.7355358000    7.7372646000   18.8864256391
   3.6473811000    9.0268087000   21.1193801331
   5.4710718000    7.7372646000   18.8864256391
   6.3829171000    9.0268087000   21.1193801331
   8.2066078000    7.7372646000   18.8864256391
   9.1184531000    9.0268087000   21.1193801331
  -3.6473816000   10.3163528000   18.8864256391
  -2.7355363000   11.6058969000   21.1193801331
  -0.9118456000   10.3163528000   18.8864256391
  -0.0000003000   11.6058969000   21.1193801331
   1.8236904000   10.3163528000   18.8864256391
   2.7355357000   11.6058969000   21.1193801331
   4.5592264000   10.3163528000   18.8864256391
   5.4710717000   11.6058969000   21.1193801331
   7.2947624000   10.3163528000   18.8864256391
   8.2066077000   11.6058969000   21.1193801331
   0.0000000000    0.0000000000   23.3538331286
   0.9118453000    1.2895441000   25.5880988115
   2.7355360000    0.0000000000   23.3538331286
   3.6473813000    1.2895441000   25.5880988115
   5.4710720000    0.0000000000   23.3538331286
   6.3829173000    1.2895441000   25.5880988115
   8.2066080000    0.0000000000   23.3538331286
   9.1184533000    1.2895441000   25.5880988115
  10.9421440000    0.0000000000   23.3538331286
  11.8539893000    1.2895441000   25.5880988115
  -0.9118454000    2.5790882000   23.3538331286
  -0.0000001000    3.8686323000   25.5880988115
   1.8236906000    2.5790882000   23.3538331286
   2.7355359000    3.8686323000   25.5880988115
   4.5592266000    2.5790882000   23.3538331286
   5.4710719000    3.8686323000   25.5880988115
   7.2947626000    2.5790882000   23.3538331286
   8.2066079000    3.8686323000   25.5880988115
  10.0302986000    2.5790882000   23.3538331286
  10.9421439000    3.8686323000   25.5880988115
  -1.8236908000    5.1581764000   23.3538331286
  -0.9118455000    6.4477205000   25.5880988115
   0.9118452000    5.1581764000   23.3538331286
   1.8236905000    6.4477205000   25.5880988115
   3.6473812000    5.1581764000   23.3538331286
   4.5592265000    6.4477205000   25.5880988115
   6.3829172000    5.1581764000   23.3538331286
   7.2947625000    6.4477205000   25.5880988115
   9.1184532000    5.1581764000   23.3538331286
  10.0302985000    6.4477205000   25.5880988115
  -2.7355362000    7.7372646000   23.3538331286
  -1.8236909000    9.0268087000   25.5880988115
  -0.0000002000    7.7372646000   23.3538331286
   0.9118451000    9.0268087000   25.5880988115
   2.7355358000    7.7372646000   23.3538331286
   3.6473811000    9.0268087000   25.5880988115
   5.4710718000    7.7372646000   23.3538331286
   6.3829171000    9.0268087000   25.5880988115
   8.2066078000    7.7372646000   23.3538331286
   9.1184531000    9.0268087000   25.5880988115
  -3.6473816000   10.3163528000   23.3538331286
  -2.7355363000   11.6058969000   25.5880988115
  -0.9118456000   10.3163528000   23.3538331286
  -0.0000003000   11.6058969000   25.5880988115
   1.8236904000   10.3163528000   23.3538331286
   2.7355357000   11.6058969000   25.5880988115
   4.5592264000   10.3163528000   23.3538331286
   5.4710717000   11.6058969000   25.5880988115
   7.2947624000   10.3163528000   23.3538331286
   8.2066077000   11.6058969000   25.5880988115
   0.0000000000    0.0000000000   27.8135607982
   0.9118453000    1.2895441000   30.0354014064
   2.7355360000    0.0000000000   27.8135607982
   3.6473813000    1.2895441000   30.0354014064
   5.4710720000    0.0000000000   27.8135607982
   6.3829173000    1.2895441000   30.0354014064
   8.2066080000    0.0000000000   27.8135607982
   9.1184533000    1.2895441000   30.0354014064
  10.9421440000    0.0000000000   27.8135607982
  11.8539893000    1.2895441000   30.0354014064
  -0.9118454000    2.5790882000   27.8135607982
  -0.0000001000    3.8686323000   30.0354014064
   1.8236906000    2.5790882000   27.8135607982
   2.7355359000    3.8686323000   30.0354014064
   4.5592266000    2.5790882000   27.8135607982
   5.4710719000    3.8686323000   30.0354014064
   7.2947626000    2.5790882000   27.8135607982
   8.2066079000    3.8686323000   30.0354014064
  10.0302986000    2.5790882000   27.8135607982
  10.9421439000    3.8686323000   30.0354014064
  -1.8236908000    5.1581764000   27.8135607982
  -0.9118455000    6.4477205000   30.0354014064
   0.9118452000    5.1581764000   27.8135607982
   1.8236905000    6.4477205000   30.0354014064
   3.6473812000    5.1581764000   27.8135607982
   4.5592265000    6.4477205000   30.0354014064
   6.3829172000    5.1581764000   27.8135607982
   7.2947625000    6.4477205000   30.0354014064
   9.1184532000    5.1581764000   27.8135607982
  10.0302985000    6.4477205000   30.0354014064
  -2.7355362000    7.7372646000   27.8135607982
  -1.8236909000    9.0268087000   30.0354014064
  -0.0000002000    7.7372646000   27.8135607982
   0.9118451000    9.0268087000   30.0354014064
   2.7355358000    7.7372646000   27.8135607982
   3.6473811000    9.0268087000   30.0354014064
   5.4710718000    7.7372646000   27.8135607982
   6.3829171000    9.0268087000   30.0354014064
   8.2066078000    7.7372646000   27.8135607982
   9.1184531000    9.0268087000   30.0354014064
  -3.6473816000   10.3163528000   27.8135607982
  -2.7355363000   11.6058969000   30.0354014064
  -0.9118456000   10.3163528000   27.8135607982
  -0.0000003000   11.6058969000   30.0354014064
   1.8236904000   10.3163528000   27.8135607982
   2.7355357000   11.6058969000   30.0354014064
   4.5592264000   10.3163528000   27.8135607982
   5.4710717000   11.6058969000   30.0354014064
   7.2947624000   10.3163528000   27.8135607982
   8.2066077000   11.6058969000   30.0354014064
   2.0516520000    0.0000000000   32.4021595936
   2.9634973000    1.2895441000   34.6240002018
   4.7871880000    0.0000000000   32.4021595936
   5.6990333000    1.2895441000   34.6240002018
   7.5227240000    0.0000000000   32.4021595936
   8.4345693000    1.2895441000   34.6240002018
  10.2582600000    0.0000000000   32.4021595936
  11.1701053000    1.2895441000   34.6240002018
  12.9937960000    0.0000000000   32.4021595936
   0.2279613000    1.2895441000   34.6240002018
   1.1398066000    2.5790882000   32.4021595936
   2.0516519000    3.8686323000   34.6240002018
   3.8753426000    2.5790882000   32.4021595936
   4.7871879000    3.8686323000   34.6240002018
   6.6108786000    2.5790882000   32.4021595936
   7.5227239000    3.8686323000   34.6240002018
   9.3464146000    2.5790882000   32.4021595936
  10.2582599000    3.8686323000   34.6240002018
  12.0819506000    2.5790882000   32.4021595936
  -0.6838841000    3.8686323000   34.6240002018
   0.2279612000    5.1581764000   32.4021595936
   1.1398065000    6.4477205000   34.6240002018
   2.9634972000    5.1581764000   32.4021595936
   3.8753425000    6.4477205000   34.6240002018
   5.6990332000    5.1581764000   32.4021595936
   6.6108785000    6.4477205000   34.6240002018
   8.4345692000    5.1581764000   32.4021595936
   9.3464145000    6.4477205000   34.6240002018
  11.1701052000    5.1581764000   32.4021595936
  -1.5957295000    6.4477205000   34.6240002018
  -0.6838842000    7.7372646000   32.4021595936
   0.2279611000    9.0268087000   34.6240002018
   2.0516518000    7.7372646000   32.4021595936
   2.9634971000    9.0268087000   34.6240002018
   4.7871878000    7.7372646000   32.4021595936
   5.6990331000    9.0268087000   34.6240002018
   7.5227238000    7.7372646000   32.4021595936
   8.4345691000    9.0268087000   34.6240002018
  10.2582598000    7.7372646000   32.4021595936
  -2.5075749000    9.0268087000   34.6240002018
  -1.5957296000   10.3163528000   32.4021595936
  -0.6838843000   11.6058969000   34.6240002018
   1.1398064000   10.3163528000   32.4021595936
   2.0516517000   11.6058969000   34.6240002018
   3.8753424000   10.3163528000   32.4021595936
   4.7871877000   11.6058969000   34.6240002018
   6.6108784000   10.3163528000   32.4021595936
   7.5227237000   11.6058969000   34.6240002018
   9.3464144000   10.3163528000   32.4021595936
  -3.4194203000   11.6058969000   34.6240002018
   2.0516520000    0.0000000000   36.8494621885
   2.9634973000    1.2895441000   39.0837278714
   4.7871880000    0.0000000000   36.8494621885
   5.6990333000    1.2895441000   39.0837278714
   7.5227240000    0.0000000000   36.8494621885
   8.4345693000    1.2895441000   39.0837278714
  10.2582600000    0.0000000000   36.8494621885
  11.1701053000    1.2895441000   39.0837278714
  12.9937960000    0.0000000000   36.8494621885
   0.2279613000    1.2895441000   39.0837278714
   1.1398066000    2.5790882000   36.8494621885
   2.0516519000    3.8686323000   39.0837278714
   3.8753426000    2.5790882000   36.8494621885
   4.7871879000    3.8686323000   39.0837278714
   6.6108786000    2.5790882000   36.8494621885
   7.5227239000    3.8686323000   39.0837278714
   9.3464146000    2.5790882000   36.8494621885
  10.2582599000    3.8686323000   39.0837278714
  12.0819506000    2.5790882000   36.8494621885
  -0.6838841000    3.8686323000   39.0837278714
   0.2279612000    5.1581764000   36.8494621885
   1.1398065000    6.4477205000   39.0837278714
   2.9634972000    5.1581764000   36.8494621885
   3.8753425000    6.4477205000   39.0837278714
   5.6990332000    5.1581764000   36.8494621885
   6.6108785000    6.4477205000   39.0837278714
   8.4345692000    5.1581764000   36.8494621885
   9.3464145000    6.4477205000   39.0837278714
  11.1701052000    5.1581764000   36.8494621885
  -1.5957295000    6.4477205000   39.0837278714
  -0.6838842000    7.7372646000   36.8494621885
   0.2279611000    9.0268087000   39.0837278714
   2.0516518000    7.7372646000   36.8494621885
   2.9634971000    9.0268087000   39.0837278714
   4.7871878000    7.7372646000   36.8494621885
   5.6990331000    9.0268087000   39.0837278714
   7.5227238000    7.7372646000   36.8494621885
   8.4345691000    9.0268087000   39.0837278714
  10.2582598000    7.7372646000   36.8494621885
  -2.5075749000    9.0268087000   39.0837278714
  -1.5957296000   10.3163528000   36.8494621885
  -0.6838843000   11.6058969000   39.0837278714
   1.1398064000   10.3163528000   36.8494621885
   2.0516517000   11.6058969000   39.0837278714
   3.8753424000   10.3163528000   36.8494621885
   4.7871877000   11.6058969000   39.0837278714
   6.6108784000   10.3163528000   36.8494621885
   7.5227237000   11.6058969000   39.0837278714
   9.3464144000   10.3163528000   36.8494621885
  -3.4194203000   11.6058969000   39.0837278714
   2.0516520000    0.0000000000   41.3181808669
   2.9634973000    1.2895441000   43.5511353609
   4.7871880000    0.0000000000   41.3181808669
   5.6990333000    1.2895441000   43.5511353609
   7.5227240000    0.0000000000   41.3181808669
   8.4345693000    1.2895441000   43.5511353609
  10.2582600000    0.0000000000   41.3181808669
  11.1701053000    1.2895441000   43.5511353609
  12.9937960000    0.0000000000   41.3181808669
   0.2279613000    1.2895441000   43.5511353609
   1.1398066000    2.5790882000   41.3181808669
   2.0516519000    3.8686323000   43.5511353609
   3.8753426000    2.5790882000   41.3181808669
   4.7871879000    3.8686323000   43.5511353609
   6.6108786000    2.5790882000   41.3181808669
   7.5227239000    3.8686323000   43.5511353609
   9.3464146000    2.5790882000   41.3181808669
  10.2582599000    3.8686323000   43.5511353609
  12.0819506000    2.5790882000   41.3181808669
  -0.6838841000    3.8686323000   43.5511353609
   0.2279612000    5.1581764000   41.3181808669
   1.1398065000    6.4477205000   43.5511353609
   2.9634972000    5.1581764000   41.3181808669
   3.8753425000    6.4477205000   43.5511353609
   5.6990332000    5.1581764000   41.3181808669
   6.6108785000    6.4477205000   43.5511353609
   8.4345692000    5.1581764000   41.3181808669
   9.3464145000    6.4477205000   43.5511353609
  11.1701052000    5.1581764000   41.3181808669
  -1.5957295000    6.4477205000   43.5511353609
  -0.6838842000    7.7372646000   41.3181808669
   0.2279611000    9.0268087000   43.5511353609
   2.0516518000    7.7372646000   41.3181808669
   2.9634971000    9.0268087000   43.5511353609
   4.7871878000    7.7372646000   41.3181808669
   5.6990331000    9.0268087000   43.5511353609
   7.5227238000    7.7372646000   41.3181808669
   8.4345691000    9.0268087000   43.5511353609
  10.2582598000    7.7372646000   41.3181808669
  -2.5075749000    9.0268087000   43.5511353609
  -1.5957296000   10.3163528000   41.3181808669
  -0.6838843000   11.6058969000   43.5511353609
   1.1398064000   10.3163528000   41.3181808669
   2.0516517000   11.6058969000   43.5511353609
   3.8753424000   10.3163528000   41.3181808669
   4.7871877000   11.6058969000   43.5511353609
   6.6108784000   10.3163528000   41.3181808669
   7.5227237000   11.6058969000   43.5511353609
   9.3464144000   10.3163528000   41.3181808669
  -3.4194203000   11.6058969000   43.5511353609
   2.0516520000    0.0000000000   45.7828411037
   2.9634973000    1.2895441000   48.0104884051
   4.7871880000    0.0000000000   45.7828411037
   5.6990333000    1.2895441000   48.0104884051
   7.5227240000    0.0000000000   45.7828411037
   8.4345693000    1.2895441000   48.0104884051
  10.2582600000    0.0000000000   45.7828411037
  11.1701053000    1.2895441000   48.0104884051
  12.9937960000    0.0000000000   45.7828411037
   0.2279613000    1.2895441000   48.0104884051
   1.1398066000    2.5790882000   45.7828411037
   2.0516519000    3.8686323000   48.0104884051
   3.8753426000    2.5790882000   45.7828411037
   4.7871879000    3.8686323000   48.0104884051
   6.6108786000    2.5790882000   45.7828411037
   7.5227239000    3.8686323000   48.0104884051
   9.3464146000    2.5790882000   45.7828411037
  10.2582599000    3.8686323000   48.0104884051
  12.0819506000    2.5790882000   45.7828411037
  -0.6838841000    3.8686323000   48.0104884051
   0.2279612000    5.1581764000   45.7828411037
   1.1398065000    6.4477205000   48.0104884051
   2.9634972000    5.1581764000   45.7828411037
   3.8753425000    6.4477205000   48.0104884051
   5.6990332000    5.1581764000   45.7828411037
   6.6108785000    6.4477205000   48.0104884051
   8.4345692000    5.1581764000   45.7828411037
   9.3464145000    6.4477205000   48.0104884051
  11.1701052000    5.1581764000   45.7828411037
  -1.5957295000    6.4477205000   48.0104884051
  -0.6838842000    7.7372646000   45.7828411037
   0.2279611000    9.0268087000   48.0104884051
   2.0516518000    7.7372646000   45.7828411037
   2.9634971000    9.0268087000   48.0104884051
   4.7871878000    7.7372646000   45.7828411037
   5.6990331000    9.0268087000   48.0104884051
   7.5227238000    7.7372646000   45.7828411037
   8.4345691000    9.0268087000   48.0104884051
  10.2582598000    7.7372646000   45.7828411037
  -2.5075749000    9.0268087000   48.0104884051
  -1.5957296000   10.3163528000   45.7828411037
  -0.6838843000   11.6058969000   48.0104884051
   1.1398064000   10.3163528000   45.7828411037
   2.0516517000   11.6058969000   48.0104884051
   3.8753424000   10.3163528000   45.7828411037
   4.7871877000   11.6058969000   48.0104884051
   6.6108784000   10.3163528000   45.7828411037
   7.5227237000   11.6058969000   48.0104884051
   9.3464144000   10.3163528000   45.7828411037
  -3.4194203000   11.6058969000   48.0104884051
   2.0516520000    0.0000000000   50.2443170250
   2.9634973000    1.2895441000   52.3472765170
   4.7871880000    0.0000000000   50.2443170250
   5.6990333000    1.2895441000   52.3472765170
   7.5227240000    0.0000000000   50.2443170250
   8.4345693000    1.2895441000   52.3472765170
  10.2582600000    0.0000000000   50.2443170250
  11.1701053000    1.2895441000   52.3472765170
  12.9937960000    0.0000000000   50.2443170250
   0.2279613000    1.2895441000   52.3472765170
   1.1398066000    2.5790882000   50.2443170250
   2.0516519000    3.8686323000   52.3472765170
   3.8753426000    2.5790882000   50.2443170250
   4.7871879000    3.8686323000   52.3472765170
   6.6108786000    2.5790882000   50.2443170250
   7.5227239000    3.8686323000   52.3472765170
   9.3464146000    2.5790882000   50.2443170250
  10.2582599000    3.8686323000   52.3472765170
  12.0819506000    2.5790882000   50.2443170250
  -0.6838841000    3.8686323000   52.3472765170
   0.2279612000    5.1581764000   50.2443170250
   1.1398065000    6.4477205000   52.3472765170
   2.9634972000    5.1581764000   50.2443170250
   3.8753425000    6.4477205000   52.3472765170
   5.6990332000    5.1581764000   50.2443170250
   6.6108785000    6.4477205000   52.3472765170
   8.4345692000    5.1581764000   50.2443170250
   9.3464145000    6.4477205000   52.3472765170
  11.1701052000    5.1581764000   50.2443170250
  -1.5957295000    6.4477205000   52.3472765170
  -0.6838842000    7.7372646000   50.2443170250
   0.2279611000    9.0268087000   52.3472765170
   2.0516518000    7.7372646000   50.2443170250
   2.9634971000    9.0268087000   52.3472765170
   4.7871878000    7.7372646000   50.2443170250
   5.6990331000    9.0268087000   52.3472765170
   7.5227238000    7.7372646000   50.2443170250
   8.4345691000    9.0268087000   52.3472765170
  10.2582598000    7.7372646000   50.2443170250
  -2.5075749000    9.0268087000   52.3472765170
  -1.5957296000   10.3163528000   50.2443170250
  -0.6838843000   11.6058969000   52.3472765170
   1.1398064000   10.3163528000   50.2443170250
   2.0516517000   11.6058969000   52.3472765170
   3.8753424000   10.3163528000   50.2443170250
   4.7871877000   11.6058969000   52.3472765170
   6.6108784000   10.3163528000   50.2443170250
   7.5227237000   11.6058969000   52.3472765170
   9.3464144000   10.3163528000   50.2443170250
  -3.4194203000   11.6058969000   52.3472765170
