Al1 
1.0
8.1827757864115269e-01 0.0000000000000000e+00 0.0000000000000000e+00 
7.0976104277800611e-01 1.2594842675049416e-02 0.0000000000000000e+00 
6.0244177763787687e-01 1.3692427728208972e-02 1.1282872913318998e-02 
Al 
1 
cartesian
   0.0000000000    0.0000000000    0.0000000000
