 H  C 
 1.0000000000000000
    10.2251522198571703    0.0000000000000000    0.0000000000000000
    -0.1555363378375025    9.8079975541627817    0.0000000000000000
    -0.0905657548083624   -0.0713801095134904   10.2559727609367179
   H   C
   4   1
Cartesian
  5.3914843202695888  3.9515440444908516  3.6890407496718449
  3.8950111959795302  4.6942160278571894  4.5359674372865637
  5.5657270585602294  5.5162441265627313  4.5433848989907908
  5.2942604347979589  4.0253898313455831  5.5037815863867596
  5.0226460153853987  4.5586840465231937  4.5572053704521203
