POSCAR file written by OVITO
1
9.8244419 0.0 0.0
-0.0636367 10.2229347 0.0
0.2800384 0.2607542 9.9137268
H C 
4 1 
Cartesian
5.9460412 5.1978188 3.9732026
4.6255212 4.0314088 3.8200927
4.3345513 5.738379 4.396843
5.2305613 4.5778189 5.4624028
5.0424213 4.8932892 4.4118829
