Mo500 
1.0
1.3677680000000001e+01 0.0000000000000000e+00 0.0000000000000000e+00 
-4.5592269999999999e+00 1.2895441000000000e+01 0.0000000000000000e+00 
0.0000000000000000e+00 0.0000000000000000e+00 6.2437561000000002e+01 
Mo 
500 
Cartesian
   0.0000000000    0.0000000000   10.0715532147
   0.9118453000    1.2895441000   12.1744502691
   2.7355360000    0.0000000000   10.0715532147
   3.6473813000    1.2895441000   12.1744502691
   5.4710720000    0.0000000000   10.0715532147
   6.3829173000    1.2895441000   12.1744502691
   8.2066080000    0.0000000000   10.0715532147
   9.1184533000    1.2895441000   12.1744502691
  10.9421440000    0.0000000000   10.0715532147
  11.8539893000    1.2895441000   12.1744502691
  -0.9118454000    2.5790882000   10.0715532147
  -0.0000001000    3.8686323000   12.1744502691
   1.8236906000    2.5790882000   10.0715532147
   2.7355359000    3.8686323000   12.1744502691
   4.5592266000    2.5790882000   10.0715532147
   5.4710719000    3.8686323000   12.1744502691
   7.2947626000    2.5790882000   10.0715532147
   8.2066079000    3.8686323000   12.1744502691
  10.0302986000    2.5790882000   10.0715532147
  10.9421439000    3.8686323000   12.1744502691
  -1.8236908000    5.1581764000   10.0715532147
  -0.9118455000    6.4477205000   12.1744502691
   0.9118452000    5.1581764000   10.0715532147
   1.8236905000    6.4477205000   12.1744502691
   3.6473812000    5.1581764000   10.0715532147
   4.5592265000    6.4477205000   12.1744502691
   6.3829172000    5.1581764000   10.0715532147
   7.2947625000    6.4477205000   12.1744502691
   9.1184532000    5.1581764000   10.0715532147
  10.0302985000    6.4477205000   12.1744502691
  -2.7355362000    7.7372646000   10.0715532147
  -1.8236909000    9.0268087000   12.1744502691
  -0.0000002000    7.7372646000   10.0715532147
   0.9118451000    9.0268087000   12.1744502691
   2.7355358000    7.7372646000   10.0715532147
   3.6473811000    9.0268087000   12.1744502691
   5.4710718000    7.7372646000   10.0715532147
   6.3829171000    9.0268087000   12.1744502691
   8.2066078000    7.7372646000   10.0715532147
   9.1184531000    9.0268087000   12.1744502691
  -3.6473816000   10.3163528000   10.0715532147
  -2.7355363000   11.6058969000   12.1744502691
  -0.9118456000   10.3163528000   10.0715532147
  -0.0000003000   11.6058969000   12.1744502691
   1.8236904000   10.3163528000   10.0715532147
   2.7355357000   11.6058969000   12.1744502691
   4.5592264000   10.3163528000   10.0715532147
   5.4710717000   11.6058969000   12.1744502691
   7.2947624000   10.3163528000   10.0715532147
   8.2066077000   11.6058969000   12.1744502691
   0.0000000000    0.0000000000   14.4082788890
   0.9118453000    1.2895441000   16.6359261904
   2.7355360000    0.0000000000   14.4082788890
   3.6473813000    1.2895441000   16.6359261904
   5.4710720000    0.0000000000   14.4082788890
   6.3829173000    1.2895441000   16.6359261904
   8.2066080000    0.0000000000   14.4082788890
   9.1184533000    1.2895441000   16.6359261904
  10.9421440000    0.0000000000   14.4082788890
  11.8539893000    1.2895441000   16.6359261904
  -0.9118454000    2.5790882000   14.4082788890
  -0.0000001000    3.8686323000   16.6359261904
   1.8236906000    2.5790882000   14.4082788890
   2.7355359000    3.8686323000   16.6359261904
   4.5592266000    2.5790882000   14.4082788890
   5.4710719000    3.8686323000   16.6359261904
   7.2947626000    2.5790882000   14.4082788890
   8.2066079000    3.8686323000   16.6359261904
  10.0302986000    2.5790882000   14.4082788890
  10.9421439000    3.8686323000   16.6359261904
  -1.8236908000    5.1581764000   14.4082788890
  -0.9118455000    6.4477205000   16.6359261904
   0.9118452000    5.1581764000   14.4082788890
   1.8236905000    6.4477205000   16.6359261904
   3.6473812000    5.1581764000   14.4082788890
   4.5592265000    6.4477205000   16.6359261904
   6.3829172000    5.1581764000   14.4082788890
   7.2947625000    6.4477205000   16.6359261904
   9.1184532000    5.1581764000   14.4082788890
  10.0302985000    6.4477205000   16.6359261904
  -2.7355362000    7.7372646000   14.4082788890
  -1.8236909000    9.0268087000   16.6359261904
  -0.0000002000    7.7372646000   14.4082788890
   0.9118451000    9.0268087000   16.6359261904
   2.7355358000    7.7372646000   14.4082788890
   3.6473811000    9.0268087000   16.6359261904
   5.4710718000    7.7372646000   14.4082788890
   6.3829171000    9.0268087000   16.6359261904
   8.2066078000    7.7372646000   14.4082788890
   9.1184531000    9.0268087000   16.6359261904
  -3.6473816000   10.3163528000   14.4082788890
  -2.7355363000   11.6058969000   16.6359261904
  -0.9118456000   10.3163528000   14.4082788890
  -0.0000003000   11.6058969000   16.6359261904
   1.8236904000   10.3163528000   14.4082788890
   2.7355357000   11.6058969000   16.6359261904
   4.5592264000   10.3163528000   14.4082788890
   5.4710717000   11.6058969000   16.6359261904
   7.2947624000   10.3163528000   14.4082788890
   8.2066077000   11.6058969000   16.6359261904
   0.0000000000    0.0000000000   18.8676319332
   0.9118453000    1.2895441000   21.1005239897
   2.7355360000    0.0000000000   18.8676319332
   3.6473813000    1.2895441000   21.1005239897
   5.4710720000    0.0000000000   18.8676319332
   6.3829173000    1.2895441000   21.1005239897
   8.2066080000    0.0000000000   18.8676319332
   9.1184533000    1.2895441000   21.1005239897
  10.9421440000    0.0000000000   18.8676319332
  11.8539893000    1.2895441000   21.1005239897
  -0.9118454000    2.5790882000   18.8676319332
  -0.0000001000    3.8686323000   21.1005239897
   1.8236906000    2.5790882000   18.8676319332
   2.7355359000    3.8686323000   21.1005239897
   4.5592266000    2.5790882000   18.8676319332
   5.4710719000    3.8686323000   21.1005239897
   7.2947626000    2.5790882000   18.8676319332
   8.2066079000    3.8686323000   21.1005239897
  10.0302986000    2.5790882000   18.8676319332
  10.9421439000    3.8686323000   21.1005239897
  -1.8236908000    5.1581764000   18.8676319332
  -0.9118455000    6.4477205000   21.1005239897
   0.9118452000    5.1581764000   18.8676319332
   1.8236905000    6.4477205000   21.1005239897
   3.6473812000    5.1581764000   18.8676319332
   4.5592265000    6.4477205000   21.1005239897
   6.3829172000    5.1581764000   18.8676319332
   7.2947625000    6.4477205000   21.1005239897
   9.1184532000    5.1581764000   18.8676319332
  10.0302985000    6.4477205000   21.1005239897
  -2.7355362000    7.7372646000   18.8676319332
  -1.8236909000    9.0268087000   21.1005239897
  -0.0000002000    7.7372646000   18.8676319332
   0.9118451000    9.0268087000   21.1005239897
   2.7355358000    7.7372646000   18.8676319332
   3.6473811000    9.0268087000   21.1005239897
   5.4710718000    7.7372646000   18.8676319332
   6.3829171000    9.0268087000   21.1005239897
   8.2066078000    7.7372646000   18.8676319332
   9.1184531000    9.0268087000   21.1005239897
  -3.6473816000   10.3163528000   18.8676319332
  -2.7355363000   11.6058969000   21.1005239897
  -0.9118456000   10.3163528000   18.8676319332
  -0.0000003000   11.6058969000   21.1005239897
   1.8236904000   10.3163528000   18.8676319332
   2.7355357000   11.6058969000   21.1005239897
   4.5592264000   10.3163528000   18.8676319332
   5.4710717000   11.6058969000   21.1005239897
   7.2947624000   10.3163528000   18.8676319332
   8.2066077000   11.6058969000   21.1005239897
   0.0000000000    0.0000000000   23.3354140481
   0.9118453000    1.2895441000   25.5698046061
   2.7355360000    0.0000000000   23.3354140481
   3.6473813000    1.2895441000   25.5698046061
   5.4710720000    0.0000000000   23.3354140481
   6.3829173000    1.2895441000   25.5698046061
   8.2066080000    0.0000000000   23.3354140481
   9.1184533000    1.2895441000   25.5698046061
  10.9421440000    0.0000000000   23.3354140481
  11.8539893000    1.2895441000   25.5698046061
  -0.9118454000    2.5790882000   23.3354140481
  -0.0000001000    3.8686323000   25.5698046061
   1.8236906000    2.5790882000   23.3354140481
   2.7355359000    3.8686323000   25.5698046061
   4.5592266000    2.5790882000   23.3354140481
   5.4710719000    3.8686323000   25.5698046061
   7.2947626000    2.5790882000   23.3354140481
   8.2066079000    3.8686323000   25.5698046061
  10.0302986000    2.5790882000   23.3354140481
  10.9421439000    3.8686323000   25.5698046061
  -1.8236908000    5.1581764000   23.3354140481
  -0.9118455000    6.4477205000   25.5698046061
   0.9118452000    5.1581764000   23.3354140481
   1.8236905000    6.4477205000   25.5698046061
   3.6473812000    5.1581764000   23.3354140481
   4.5592265000    6.4477205000   25.5698046061
   6.3829172000    5.1581764000   23.3354140481
   7.2947625000    6.4477205000   25.5698046061
   9.1184532000    5.1581764000   23.3354140481
  10.0302985000    6.4477205000   25.5698046061
  -2.7355362000    7.7372646000   23.3354140481
  -1.8236909000    9.0268087000   25.5698046061
  -0.0000002000    7.7372646000   23.3354140481
   0.9118451000    9.0268087000   25.5698046061
   2.7355358000    7.7372646000   23.3354140481
   3.6473811000    9.0268087000   25.5698046061
   5.4710718000    7.7372646000   23.3354140481
   6.3829171000    9.0268087000   25.5698046061
   8.2066078000    7.7372646000   23.3354140481
   9.1184531000    9.0268087000   25.5698046061
  -3.6473816000   10.3163528000   23.3354140481
  -2.7355363000   11.6058969000   25.5698046061
  -0.9118456000   10.3163528000   23.3354140481
  -0.0000003000   11.6058969000   25.5698046061
   1.8236904000   10.3163528000   23.3354140481
   2.7355357000   11.6058969000   25.5698046061
   4.5592264000   10.3163528000   23.3354140481
   5.4710717000   11.6058969000   25.5698046061
   7.2947624000   10.3163528000   23.3354140481
   8.2066077000   11.6058969000   25.5698046061
   0.0000000000    0.0000000000   27.7934559035
   0.9118453000    1.2895441000   30.0164203878
   2.7355360000    0.0000000000   27.7934559035
   3.6473813000    1.2895441000   30.0164203878
   5.4710720000    0.0000000000   27.7934559035
   6.3829173000    1.2895441000   30.0164203878
   8.2066080000    0.0000000000   27.7934559035
   9.1184533000    1.2895441000   30.0164203878
  10.9421440000    0.0000000000   27.7934559035
  11.8539893000    1.2895441000   30.0164203878
  -0.9118454000    2.5790882000   27.7934559035
  -0.0000001000    3.8686323000   30.0164203878
   1.8236906000    2.5790882000   27.7934559035
   2.7355359000    3.8686323000   30.0164203878
   4.5592266000    2.5790882000   27.7934559035
   5.4710719000    3.8686323000   30.0164203878
   7.2947626000    2.5790882000   27.7934559035
   8.2066079000    3.8686323000   30.0164203878
  10.0302986000    2.5790882000   27.7934559035
  10.9421439000    3.8686323000   30.0164203878
  -1.8236908000    5.1581764000   27.7934559035
  -0.9118455000    6.4477205000   30.0164203878
   0.9118452000    5.1581764000   27.7934559035
   1.8236905000    6.4477205000   30.0164203878
   3.6473812000    5.1581764000   27.7934559035
   4.5592265000    6.4477205000   30.0164203878
   6.3829172000    5.1581764000   27.7934559035
   7.2947625000    6.4477205000   30.0164203878
   9.1184532000    5.1581764000   27.7934559035
  10.0302985000    6.4477205000   30.0164203878
  -2.7355362000    7.7372646000   27.7934559035
  -1.8236909000    9.0268087000   30.0164203878
  -0.0000002000    7.7372646000   27.7934559035
   0.9118451000    9.0268087000   30.0164203878
   2.7355358000    7.7372646000   27.7934559035
   3.6473811000    9.0268087000   30.0164203878
   5.4710718000    7.7372646000   27.7934559035
   6.3829171000    9.0268087000   30.0164203878
   8.2066078000    7.7372646000   27.7934559035
   9.1184531000    9.0268087000   30.0164203878
  -3.6473816000   10.3163528000   27.7934559035
  -2.7355363000   11.6058969000   30.0164203878
  -0.9118456000   10.3163528000   27.7934559035
  -0.0000003000   11.6058969000   30.0164203878
   1.8236904000   10.3163528000   27.7934559035
   2.7355357000   11.6058969000   30.0164203878
   4.5592264000   10.3163528000   27.7934559035
   5.4710717000   11.6058969000   30.0164203878
   7.2947624000   10.3163528000   27.7934559035
   8.2066077000   11.6058969000   30.0164203878
   0.9574376000    0.0000000000   32.4211406122
   1.8692829000    1.2895441000   34.6441050965
   3.6929736000    0.0000000000   32.4211406122
   4.6048189000    1.2895441000   34.6441050965
   6.4285096000    0.0000000000   32.4211406122
   7.3403549000    1.2895441000   34.6441050965
   9.1640456000    0.0000000000   32.4211406122
  10.0758909000    1.2895441000   34.6441050965
  11.8995816000    0.0000000000   32.4211406122
  12.8114269000    1.2895441000   34.6441050965
   0.0455922000    2.5790882000   32.4211406122
   0.9574375000    3.8686323000   34.6441050965
   2.7811282000    2.5790882000   32.4211406122
   3.6929735000    3.8686323000   34.6441050965
   5.5166642000    2.5790882000   32.4211406122
   6.4285095000    3.8686323000   34.6441050965
   8.2522002000    2.5790882000   32.4211406122
   9.1640455000    3.8686323000   34.6441050965
  10.9877362000    2.5790882000   32.4211406122
  11.8995815000    3.8686323000   34.6441050965
  -0.8662532000    5.1581764000   32.4211406122
   0.0455921000    6.4477205000   34.6441050965
   1.8692828000    5.1581764000   32.4211406122
   2.7811281000    6.4477205000   34.6441050965
   4.6048188000    5.1581764000   32.4211406122
   5.5166641000    6.4477205000   34.6441050965
   7.3403548000    5.1581764000   32.4211406122
   8.2522001000    6.4477205000   34.6441050965
  10.0758908000    5.1581764000   32.4211406122
  10.9877361000    6.4477205000   34.6441050965
  -1.7780986000    7.7372646000   32.4211406122
  -0.8662533000    9.0268087000   34.6441050965
   0.9574374000    7.7372646000   32.4211406122
   1.8692827000    9.0268087000   34.6441050965
   3.6929734000    7.7372646000   32.4211406122
   4.6048187000    9.0268087000   34.6441050965
   6.4285094000    7.7372646000   32.4211406122
   7.3403547000    9.0268087000   34.6441050965
   9.1640454000    7.7372646000   32.4211406122
  10.0758907000    9.0268087000   34.6441050965
  -2.6899440000   10.3163528000   32.4211406122
  -1.7780987000   11.6058969000   34.6441050965
   0.0455920000   10.3163528000   32.4211406122
   0.9574373000   11.6058969000   34.6441050965
   2.7811280000   10.3163528000   32.4211406122
   3.6929733000   11.6058969000   34.6441050965
   5.5166640000   10.3163528000   32.4211406122
   6.4285093000   11.6058969000   34.6441050965
   8.2522000000   10.3163528000   32.4211406122
   9.1640453000   11.6058969000   34.6441050965
   0.9574376000    0.0000000000   36.8677563939
   1.8692829000    1.2895441000   39.1021469519
   3.6929736000    0.0000000000   36.8677563939
   4.6048189000    1.2895441000   39.1021469519
   6.4285096000    0.0000000000   36.8677563939
   7.3403549000    1.2895441000   39.1021469519
   9.1640456000    0.0000000000   36.8677563939
  10.0758909000    1.2895441000   39.1021469519
  11.8995816000    0.0000000000   36.8677563939
  12.8114269000    1.2895441000   39.1021469519
   0.0455922000    2.5790882000   36.8677563939
   0.9574375000    3.8686323000   39.1021469519
   2.7811282000    2.5790882000   36.8677563939
   3.6929735000    3.8686323000   39.1021469519
   5.5166642000    2.5790882000   36.8677563939
   6.4285095000    3.8686323000   39.1021469519
   8.2522002000    2.5790882000   36.8677563939
   9.1640455000    3.8686323000   39.1021469519
  10.9877362000    2.5790882000   36.8677563939
  11.8995815000    3.8686323000   39.1021469519
  -0.8662532000    5.1581764000   36.8677563939
   0.0455921000    6.4477205000   39.1021469519
   1.8692828000    5.1581764000   36.8677563939
   2.7811281000    6.4477205000   39.1021469519
   4.6048188000    5.1581764000   36.8677563939
   5.5166641000    6.4477205000   39.1021469519
   7.3403548000    5.1581764000   36.8677563939
   8.2522001000    6.4477205000   39.1021469519
  10.0758908000    5.1581764000   36.8677563939
  10.9877361000    6.4477205000   39.1021469519
  -1.7780986000    7.7372646000   36.8677563939
  -0.8662533000    9.0268087000   39.1021469519
   0.9574374000    7.7372646000   36.8677563939
   1.8692827000    9.0268087000   39.1021469519
   3.6929734000    7.7372646000   36.8677563939
   4.6048187000    9.0268087000   39.1021469519
   6.4285094000    7.7372646000   36.8677563939
   7.3403547000    9.0268087000   39.1021469519
   9.1640454000    7.7372646000   36.8677563939
  10.0758907000    9.0268087000   39.1021469519
  -2.6899440000   10.3163528000   36.8677563939
  -1.7780987000   11.6058969000   39.1021469519
   0.0455920000   10.3163528000   36.8677563939
   0.9574373000   11.6058969000   39.1021469519
   2.7811280000   10.3163528000   36.8677563939
   3.6929733000   11.6058969000   39.1021469519
   5.5166640000   10.3163528000   36.8677563939
   6.4285093000   11.6058969000   39.1021469519
   8.2522000000   10.3163528000   36.8677563939
   9.1640453000   11.6058969000   39.1021469519
   0.9574376000    0.0000000000   41.3370370103
   1.8692829000    1.2895441000   43.5699290668
   3.6929736000    0.0000000000   41.3370370103
   4.6048189000    1.2895441000   43.5699290668
   6.4285096000    0.0000000000   41.3370370103
   7.3403549000    1.2895441000   43.5699290668
   9.1640456000    0.0000000000   41.3370370103
  10.0758909000    1.2895441000   43.5699290668
  11.8995816000    0.0000000000   41.3370370103
  12.8114269000    1.2895441000   43.5699290668
   0.0455922000    2.5790882000   41.3370370103
   0.9574375000    3.8686323000   43.5699290668
   2.7811282000    2.5790882000   41.3370370103
   3.6929735000    3.8686323000   43.5699290668
   5.5166642000    2.5790882000   41.3370370103
   6.4285095000    3.8686323000   43.5699290668
   8.2522002000    2.5790882000   41.3370370103
   9.1640455000    3.8686323000   43.5699290668
  10.9877362000    2.5790882000   41.3370370103
  11.8995815000    3.8686323000   43.5699290668
  -0.8662532000    5.1581764000   41.3370370103
   0.0455921000    6.4477205000   43.5699290668
   1.8692828000    5.1581764000   41.3370370103
   2.7811281000    6.4477205000   43.5699290668
   4.6048188000    5.1581764000   41.3370370103
   5.5166641000    6.4477205000   43.5699290668
   7.3403548000    5.1581764000   41.3370370103
   8.2522001000    6.4477205000   43.5699290668
  10.0758908000    5.1581764000   41.3370370103
  10.9877361000    6.4477205000   43.5699290668
  -1.7780986000    7.7372646000   41.3370370103
  -0.8662533000    9.0268087000   43.5699290668
   0.9574374000    7.7372646000   41.3370370103
   1.8692827000    9.0268087000   43.5699290668
   3.6929734000    7.7372646000   41.3370370103
   4.6048187000    9.0268087000   43.5699290668
   6.4285094000    7.7372646000   41.3370370103
   7.3403547000    9.0268087000   43.5699290668
   9.1640454000    7.7372646000   41.3370370103
  10.0758907000    9.0268087000   43.5699290668
  -2.6899440000   10.3163528000   41.3370370103
  -1.7780987000   11.6058969000   43.5699290668
   0.0455920000   10.3163528000   41.3370370103
   0.9574373000   11.6058969000   43.5699290668
   2.7811280000   10.3163528000   41.3370370103
   3.6929733000   11.6058969000   43.5699290668
   5.5166640000   10.3163528000   41.3370370103
   6.4285093000   11.6058969000   43.5699290668
   8.2522000000   10.3163528000   41.3370370103
   9.1640453000   11.6058969000   43.5699290668
   0.9574376000    0.0000000000   45.8016348096
   1.8692829000    1.2895441000   48.0292821110
   3.6929736000    0.0000000000   45.8016348096
   4.6048189000    1.2895441000   48.0292821110
   6.4285096000    0.0000000000   45.8016348096
   7.3403549000    1.2895441000   48.0292821110
   9.1640456000    0.0000000000   45.8016348096
  10.0758909000    1.2895441000   48.0292821110
  11.8995816000    0.0000000000   45.8016348096
  12.8114269000    1.2895441000   48.0292821110
   0.0455922000    2.5790882000   45.8016348096
   0.9574375000    3.8686323000   48.0292821110
   2.7811282000    2.5790882000   45.8016348096
   3.6929735000    3.8686323000   48.0292821110
   5.5166642000    2.5790882000   45.8016348096
   6.4285095000    3.8686323000   48.0292821110
   8.2522002000    2.5790882000   45.8016348096
   9.1640455000    3.8686323000   48.0292821110
  10.9877362000    2.5790882000   45.8016348096
  11.8995815000    3.8686323000   48.0292821110
  -0.8662532000    5.1581764000   45.8016348096
   0.0455921000    6.4477205000   48.0292821110
   1.8692828000    5.1581764000   45.8016348096
   2.7811281000    6.4477205000   48.0292821110
   4.6048188000    5.1581764000   45.8016348096
   5.5166641000    6.4477205000   48.0292821110
   7.3403548000    5.1581764000   45.8016348096
   8.2522001000    6.4477205000   48.0292821110
  10.0758908000    5.1581764000   45.8016348096
  10.9877361000    6.4477205000   48.0292821110
  -1.7780986000    7.7372646000   45.8016348096
  -0.8662533000    9.0268087000   48.0292821110
   0.9574374000    7.7372646000   45.8016348096
   1.8692827000    9.0268087000   48.0292821110
   3.6929734000    7.7372646000   45.8016348096
   4.6048187000    9.0268087000   48.0292821110
   6.4285094000    7.7372646000   45.8016348096
   7.3403547000    9.0268087000   48.0292821110
   9.1640454000    7.7372646000   45.8016348096
  10.0758907000    9.0268087000   48.0292821110
  -2.6899440000   10.3163528000   45.8016348096
  -1.7780987000   11.6058969000   48.0292821110
   0.0455920000   10.3163528000   45.8016348096
   0.9574373000   11.6058969000   48.0292821110
   2.7811280000   10.3163528000   45.8016348096
   3.6929733000   11.6058969000   48.0292821110
   5.5166640000   10.3163528000   45.8016348096
   6.4285093000   11.6058969000   48.0292821110
   8.2522000000   10.3163528000   45.8016348096
   9.1640453000   11.6058969000   48.0292821110
   0.9574376000    0.0000000000   50.2631107309
   1.8692829000    1.2895441000   52.3660077853
   3.6929736000    0.0000000000   50.2631107309
   4.6048189000    1.2895441000   52.3660077853
   6.4285096000    0.0000000000   50.2631107309
   7.3403549000    1.2895441000   52.3660077853
   9.1640456000    0.0000000000   50.2631107309
  10.0758909000    1.2895441000   52.3660077853
  11.8995816000    0.0000000000   50.2631107309
  12.8114269000    1.2895441000   52.3660077853
   0.0455922000    2.5790882000   50.2631107309
   0.9574375000    3.8686323000   52.3660077853
   2.7811282000    2.5790882000   50.2631107309
   3.6929735000    3.8686323000   52.3660077853
   5.5166642000    2.5790882000   50.2631107309
   6.4285095000    3.8686323000   52.3660077853
   8.2522002000    2.5790882000   50.2631107309
   9.1640455000    3.8686323000   52.3660077853
  10.9877362000    2.5790882000   50.2631107309
  11.8995815000    3.8686323000   52.3660077853
  -0.8662532000    5.1581764000   50.2631107309
   0.0455921000    6.4477205000   52.3660077853
   1.8692828000    5.1581764000   50.2631107309
   2.7811281000    6.4477205000   52.3660077853
   4.6048188000    5.1581764000   50.2631107309
   5.5166641000    6.4477205000   52.3660077853
   7.3403548000    5.1581764000   50.2631107309
   8.2522001000    6.4477205000   52.3660077853
  10.0758908000    5.1581764000   50.2631107309
  10.9877361000    6.4477205000   52.3660077853
  -1.7780986000    7.7372646000   50.2631107309
  -0.8662533000    9.0268087000   52.3660077853
   0.9574374000    7.7372646000   50.2631107309
   1.8692827000    9.0268087000   52.3660077853
   3.6929734000    7.7372646000   50.2631107309
   4.6048187000    9.0268087000   52.3660077853
   6.4285094000    7.7372646000   50.2631107309
   7.3403547000    9.0268087000   52.3660077853
   9.1640454000    7.7372646000   50.2631107309
  10.0758907000    9.0268087000   52.3660077853
  -2.6899440000   10.3163528000   50.2631107309
  -1.7780987000   11.6058969000   52.3660077853
   0.0455920000   10.3163528000   50.2631107309
   0.9574373000   11.6058969000   52.3660077853
   2.7811280000   10.3163528000   50.2631107309
   3.6929733000   11.6058969000   52.3660077853
   5.5166640000   10.3163528000   50.2631107309
   6.4285093000   11.6058969000   52.3660077853
   8.2522000000   10.3163528000   50.2631107309
   9.1640453000   11.6058969000   52.3660077853
