&GLOBAL
PROJECT DPGEN
&END GLOBAL
&FORCE_EVAL
METHOD QS
STRESS_TENSOR ANALYTICAL
&DFT
BASIS_SET_FILE_NAME /data1/dptut00/ybzhuang/dpgen/tests/generator/cp2k_basis_pp_file/BASIS_MOLOPT
POTENTIAL_FILE_NAME /data1/dptut00/ybzhuang/dpgen/tests/generator/cp2k_basis_pp_file/GTH_POTENTIALS
CHARGE 0
UKS F
MULTIPLICITY 1
&MGRID
CUTOFF 400
REL_CUTOFF 50
NGRIDS 4
&END MGRID
&QS
EPS_DEFAULT 1.0E-12
&END QS
&SCF
SCF_GUESS ATOMIC
EPS_SCF 1.0E-6
MAX_SCF 50
&OT
MINIMIZER DIIS
PRECONDITIONER FULL_SINGLE_INVERSE
&END OT
&END SCF
&XC
&XC_FUNCTIONAL PBE
&END XC_FUNCTIONAL
&VDW_POTENTIAL
DISPERSION_FUNCTIONAL PAIR_POTENTIAL
&PAIR_POTENTIAL
TYPE DFTD3
PARAMETER_FILE_NAME /data1/dptut00/ybzhuang/dpgen/tests/generator/cp2k_basis_pp_file/dftd3.dat
REFERENCE_FUNCTIONAL PBE
&END PAIR_POTENTIAL
&END VDW_POTENTIAL
&END XC
&END DFT
&SUBSYS
&CELL
A 10.8044 0.       0.      
B 0.  10.497502 0.      
C 0. 0.  10.956034
&END CELL
&COORD
@include coord.xyz
&END COORD
&KIND H
BASIS_SET DZVP-MOLOPT-GTH
POTENTIAL GTH-PBE-q1
&END KIND
&KIND C
BASIS_SET DZVP-MOLOPT-GTH
POTENTIAL GTH-PBE-q4
&END KIND
&KIND N
BASIS_SET DZVP-MOLOPT-GTH
POTENTIAL GTH-PBE-q5
&END KIND
&END SUBSYS
&PRINT
&FORCES ON
&END FORCES
&END PRINT
&END FORCE_EVAL
