 H  C 
 1.0000000000000000
    10.1286161245845854    0.0000000000000000    0.0000000000000000
     0.0283051426765793   10.1791558766260586    0.0000000000000000
     0.0507910733623393    0.0007103985306966    9.8820715455771548
   H   C
   4   1
Cartesian
  5.4640465180103863  4.1196452309055376  3.5616509136235983
  4.0080766817794311  4.9095736022594103  4.3681004239644716
  5.6788415530852179  5.7463892965707748  4.3746496011719209
  5.3935659329158456  4.2174075837877210  5.3038576398000785
  5.1192175619638274  4.7732151465267290  4.3835564319978513
