 H  C 
 1.0000000000000000
     9.9719283729231201    0.0000000000000000    0.0000000000000000
     0.0201467199289042    9.9387806162995105    0.0000000000000000
    -0.1610034624866186    0.1173941443292126    9.8066619191646858
   H   C
   4   1
Cartesian
  5.2998513352222663  4.0743932743991165  3.5308977141059787
  3.8524530608079015  4.8471914111504892  4.3328223327899398
  5.4898705010254396  5.6720426667810893  4.3495944880105553
  5.1950670398894658  4.1751924223485775  5.2710240435684002
  4.9408545384249072  4.7128780253383571  4.3556520963118146
