POSCAR file written by OVITO
1
9.4531756 0.0 0.0
0.1081463 9.5935335 0.0
0.2401817 -0.220884 9.3047619
H C 
4 1 
Cartesian
3.8585238 4.3702092 3.9770964
5.3818336 4.8330894 3.2717364
5.2943936 3.3345194 4.1799564
5.1403236 4.9276396 5.0035768
4.9142638 4.3894591 4.1537867
