Mo500 
1.0
1.3677680000000001e+01 0.0000000000000000e+00 0.0000000000000000e+00 
-4.5592269999999999e+00 1.2895441000000000e+01 0.0000000000000000e+00 
0.0000000000000000e+00 0.0000000000000000e+00 6.2437561000000002e+01 
Mo 
500 
Cartesian
   0.0000000000    0.0000000000   10.1027719952
   0.9118453000    1.2895441000   12.2057314872
   2.7355360000    0.0000000000   10.1027719952
   3.6473813000    1.2895441000   12.2057314872
   5.4710720000    0.0000000000   10.1027719952
   6.3829173000    1.2895441000   12.2057314872
   8.2066080000    0.0000000000   10.1027719952
   9.1184533000    1.2895441000   12.2057314872
  10.9421440000    0.0000000000   10.1027719952
  11.8539893000    1.2895441000   12.2057314872
  -0.9118454000    2.5790882000   10.1027719952
  -0.0000001000    3.8686323000   12.2057314872
   1.8236906000    2.5790882000   10.1027719952
   2.7355359000    3.8686323000   12.2057314872
   4.5592266000    2.5790882000   10.1027719952
   5.4710719000    3.8686323000   12.2057314872
   7.2947626000    2.5790882000   10.1027719952
   8.2066079000    3.8686323000   12.2057314872
  10.0302986000    2.5790882000   10.1027719952
  10.9421439000    3.8686323000   12.2057314872
  -1.8236908000    5.1581764000   10.1027719952
  -0.9118455000    6.4477205000   12.2057314872
   0.9118452000    5.1581764000   10.1027719952
   1.8236905000    6.4477205000   12.2057314872
   3.6473812000    5.1581764000   10.1027719952
   4.5592265000    6.4477205000   12.2057314872
   6.3829172000    5.1581764000   10.1027719952
   7.2947625000    6.4477205000   12.2057314872
   9.1184532000    5.1581764000   10.1027719952
  10.0302985000    6.4477205000   12.2057314872
  -2.7355362000    7.7372646000   10.1027719952
  -1.8236909000    9.0268087000   12.2057314872
  -0.0000002000    7.7372646000   10.1027719952
   0.9118451000    9.0268087000   12.2057314872
   2.7355358000    7.7372646000   10.1027719952
   3.6473811000    9.0268087000   12.2057314872
   5.4710718000    7.7372646000   10.1027719952
   6.3829171000    9.0268087000   12.2057314872
   8.2066078000    7.7372646000   10.1027719952
   9.1184531000    9.0268087000   12.2057314872
  -3.6473816000   10.3163528000   10.1027719952
  -2.7355363000   11.6058969000   12.2057314872
  -0.9118456000   10.3163528000   10.1027719952
  -0.0000003000   11.6058969000   12.2057314872
   1.8236904000   10.3163528000   10.1027719952
   2.7355357000   11.6058969000   12.2057314872
   4.5592264000   10.3163528000   10.1027719952
   5.4710717000   11.6058969000   12.2057314872
   7.2947624000   10.3163528000   10.1027719952
   8.2066077000   11.6058969000   12.2057314872
   0.0000000000    0.0000000000   14.4394976695
   0.9118453000    1.2895441000   16.6671449709
   2.7355360000    0.0000000000   14.4394976695
   3.6473813000    1.2895441000   16.6671449709
   5.4710720000    0.0000000000   14.4394976695
   6.3829173000    1.2895441000   16.6671449709
   8.2066080000    0.0000000000   14.4394976695
   9.1184533000    1.2895441000   16.6671449709
  10.9421440000    0.0000000000   14.4394976695
  11.8539893000    1.2895441000   16.6671449709
  -0.9118454000    2.5790882000   14.4394976695
  -0.0000001000    3.8686323000   16.6671449709
   1.8236906000    2.5790882000   14.4394976695
   2.7355359000    3.8686323000   16.6671449709
   4.5592266000    2.5790882000   14.4394976695
   5.4710719000    3.8686323000   16.6671449709
   7.2947626000    2.5790882000   14.4394976695
   8.2066079000    3.8686323000   16.6671449709
  10.0302986000    2.5790882000   14.4394976695
  10.9421439000    3.8686323000   16.6671449709
  -1.8236908000    5.1581764000   14.4394976695
  -0.9118455000    6.4477205000   16.6671449709
   0.9118452000    5.1581764000   14.4394976695
   1.8236905000    6.4477205000   16.6671449709
   3.6473812000    5.1581764000   14.4394976695
   4.5592265000    6.4477205000   16.6671449709
   6.3829172000    5.1581764000   14.4394976695
   7.2947625000    6.4477205000   16.6671449709
   9.1184532000    5.1581764000   14.4394976695
  10.0302985000    6.4477205000   16.6671449709
  -2.7355362000    7.7372646000   14.4394976695
  -1.8236909000    9.0268087000   16.6671449709
  -0.0000002000    7.7372646000   14.4394976695
   0.9118451000    9.0268087000   16.6671449709
   2.7355358000    7.7372646000   14.4394976695
   3.6473811000    9.0268087000   16.6671449709
   5.4710718000    7.7372646000   14.4394976695
   6.3829171000    9.0268087000   16.6671449709
   8.2066078000    7.7372646000   14.4394976695
   9.1184531000    9.0268087000   16.6671449709
  -3.6473816000   10.3163528000   14.4394976695
  -2.7355363000   11.6058969000   16.6671449709
  -0.9118456000   10.3163528000   14.4394976695
  -0.0000003000   11.6058969000   16.6671449709
   1.8236904000   10.3163528000   14.4394976695
   2.7355357000   11.6058969000   16.6671449709
   4.5592264000   10.3163528000   14.4394976695
   5.4710717000   11.6058969000   16.6671449709
   7.2947624000   10.3163528000   14.4394976695
   8.2066077000   11.6058969000   16.6671449709
   0.0000000000    0.0000000000   18.8989131513
   0.9118453000    1.2895441000   21.1318676453
   2.7355360000    0.0000000000   18.8989131513
   3.6473813000    1.2895441000   21.1318676453
   5.4710720000    0.0000000000   18.8989131513
   6.3829173000    1.2895441000   21.1318676453
   8.2066080000    0.0000000000   18.8989131513
   9.1184533000    1.2895441000   21.1318676453
  10.9421440000    0.0000000000   18.8989131513
  11.8539893000    1.2895441000   21.1318676453
  -0.9118454000    2.5790882000   18.8989131513
  -0.0000001000    3.8686323000   21.1318676453
   1.8236906000    2.5790882000   18.8989131513
   2.7355359000    3.8686323000   21.1318676453
   4.5592266000    2.5790882000   18.8989131513
   5.4710719000    3.8686323000   21.1318676453
   7.2947626000    2.5790882000   18.8989131513
   8.2066079000    3.8686323000   21.1318676453
  10.0302986000    2.5790882000   18.8989131513
  10.9421439000    3.8686323000   21.1318676453
  -1.8236908000    5.1581764000   18.8989131513
  -0.9118455000    6.4477205000   21.1318676453
   0.9118452000    5.1581764000   18.8989131513
   1.8236905000    6.4477205000   21.1318676453
   3.6473812000    5.1581764000   18.8989131513
   4.5592265000    6.4477205000   21.1318676453
   6.3829172000    5.1581764000   18.8989131513
   7.2947625000    6.4477205000   21.1318676453
   9.1184532000    5.1581764000   18.8989131513
  10.0302985000    6.4477205000   21.1318676453
  -2.7355362000    7.7372646000   18.8989131513
  -1.8236909000    9.0268087000   21.1318676453
  -0.0000002000    7.7372646000   18.8989131513
   0.9118451000    9.0268087000   21.1318676453
   2.7355358000    7.7372646000   18.8989131513
   3.6473811000    9.0268087000   21.1318676453
   5.4710718000    7.7372646000   18.8989131513
   6.3829171000    9.0268087000   21.1318676453
   8.2066078000    7.7372646000   18.8989131513
   9.1184531000    9.0268087000   21.1318676453
  -3.6473816000   10.3163528000   18.8989131513
  -2.7355363000   11.6058969000   21.1318676453
  -0.9118456000   10.3163528000   18.8989131513
  -0.0000003000   11.6058969000   21.1318676453
   1.8236904000   10.3163528000   18.8989131513
   2.7355357000   11.6058969000   21.1318676453
   4.5592264000   10.3163528000   18.8989131513
   5.4710717000   11.6058969000   21.1318676453
   7.2947624000   10.3163528000   18.8989131513
   8.2066077000   11.6058969000   21.1318676453
   0.0000000000    0.0000000000   23.3661333282
   0.9118453000    1.2895441000   25.6002741359
   2.7355360000    0.0000000000   23.3661333282
   3.6473813000    1.2895441000   25.6002741359
   5.4710720000    0.0000000000   23.3661333282
   6.3829173000    1.2895441000   25.6002741359
   8.2066080000    0.0000000000   23.3661333282
   9.1184533000    1.2895441000   25.6002741359
  10.9421440000    0.0000000000   23.3661333282
  11.8539893000    1.2895441000   25.6002741359
  -0.9118454000    2.5790882000   23.3661333282
  -0.0000001000    3.8686323000   25.6002741359
   1.8236906000    2.5790882000   23.3661333282
   2.7355359000    3.8686323000   25.6002741359
   4.5592266000    2.5790882000   23.3661333282
   5.4710719000    3.8686323000   25.6002741359
   7.2947626000    2.5790882000   23.3661333282
   8.2066079000    3.8686323000   25.6002741359
  10.0302986000    2.5790882000   23.3661333282
  10.9421439000    3.8686323000   25.6002741359
  -1.8236908000    5.1581764000   23.3661333282
  -0.9118455000    6.4477205000   25.6002741359
   0.9118452000    5.1581764000   23.3661333282
   1.8236905000    6.4477205000   25.6002741359
   3.6473812000    5.1581764000   23.3661333282
   4.5592265000    6.4477205000   25.6002741359
   6.3829172000    5.1581764000   23.3661333282
   7.2947625000    6.4477205000   25.6002741359
   9.1184532000    5.1581764000   23.3661333282
  10.0302985000    6.4477205000   25.6002741359
  -2.7355362000    7.7372646000   23.3661333282
  -1.8236909000    9.0268087000   25.6002741359
  -0.0000002000    7.7372646000   23.3661333282
   0.9118451000    9.0268087000   25.6002741359
   2.7355358000    7.7372646000   23.3661333282
   3.6473811000    9.0268087000   25.6002741359
   5.4710718000    7.7372646000   23.3661333282
   6.3829171000    9.0268087000   25.6002741359
   8.2066078000    7.7372646000   23.3661333282
   9.1184531000    9.0268087000   25.6002741359
  -3.6473816000   10.3163528000   23.3661333282
  -2.7355363000   11.6058969000   25.6002741359
  -0.9118456000   10.3163528000   23.3661333282
  -0.0000003000   11.6058969000   25.6002741359
   1.8236904000   10.3163528000   23.3661333282
   2.7355357000   11.6058969000   25.6002741359
   4.5592264000   10.3163528000   23.3661333282
   5.4710717000   11.6058969000   25.6002741359
   7.2947624000   10.3163528000   23.3661333282
   8.2066077000   11.6058969000   25.6002741359
   0.0000000000    0.0000000000   27.8272346240
   0.9118453000    1.2895441000   30.0502615459
   2.7355360000    0.0000000000   27.8272346240
   3.6473813000    1.2895441000   30.0502615459
   5.4710720000    0.0000000000   27.8272346240
   6.3829173000    1.2895441000   30.0502615459
   8.2066080000    0.0000000000   27.8272346240
   9.1184533000    1.2895441000   30.0502615459
  10.9421440000    0.0000000000   27.8272346240
  11.8539893000    1.2895441000   30.0502615459
  -0.9118454000    2.5790882000   27.8272346240
  -0.0000001000    3.8686323000   30.0502615459
   1.8236906000    2.5790882000   27.8272346240
   2.7355359000    3.8686323000   30.0502615459
   4.5592266000    2.5790882000   27.8272346240
   5.4710719000    3.8686323000   30.0502615459
   7.2947626000    2.5790882000   27.8272346240
   8.2066079000    3.8686323000   30.0502615459
  10.0302986000    2.5790882000   27.8272346240
  10.9421439000    3.8686323000   30.0502615459
  -1.8236908000    5.1581764000   27.8272346240
  -0.9118455000    6.4477205000   30.0502615459
   0.9118452000    5.1581764000   27.8272346240
   1.8236905000    6.4477205000   30.0502615459
   3.6473812000    5.1581764000   27.8272346240
   4.5592265000    6.4477205000   30.0502615459
   6.3829172000    5.1581764000   27.8272346240
   7.2947625000    6.4477205000   30.0502615459
   9.1184532000    5.1581764000   27.8272346240
  10.0302985000    6.4477205000   30.0502615459
  -2.7355362000    7.7372646000   27.8272346240
  -1.8236909000    9.0268087000   30.0502615459
  -0.0000002000    7.7372646000   27.8272346240
   0.9118451000    9.0268087000   30.0502615459
   2.7355358000    7.7372646000   27.8272346240
   3.6473811000    9.0268087000   30.0502615459
   5.4710718000    7.7372646000   27.8272346240
   6.3829171000    9.0268087000   30.0502615459
   8.2066078000    7.7372646000   27.8272346240
   9.1184531000    9.0268087000   30.0502615459
  -3.6473816000   10.3163528000   27.8272346240
  -2.7355363000   11.6058969000   30.0502615459
  -0.9118456000   10.3163528000   27.8272346240
  -0.0000003000   11.6058969000   30.0502615459
   1.8236904000   10.3163528000   27.8272346240
   2.7355357000   11.6058969000   30.0502615459
   4.5592264000   10.3163528000   27.8272346240
   5.4710717000   11.6058969000   30.0502615459
   7.2947624000   10.3163528000   27.8272346240
   8.2066077000   11.6058969000   30.0502615459
   2.1884288000    0.0000000000   32.3872994541
   3.1002741000    1.2895441000   34.6103263760
   4.9239648000    0.0000000000   32.3872994541
   5.8358101000    1.2895441000   34.6103263760
   7.6595008000    0.0000000000   32.3872994541
   8.5713461000    1.2895441000   34.6103263760
  10.3950368000    0.0000000000   32.3872994541
  11.3068821000    1.2895441000   34.6103263760
  13.1305728000    0.0000000000   32.3872994541
   0.3647381000    1.2895441000   34.6103263760
   1.2765834000    2.5790882000   32.3872994541
   2.1884287000    3.8686323000   34.6103263760
   4.0121194000    2.5790882000   32.3872994541
   4.9239647000    3.8686323000   34.6103263760
   6.7476554000    2.5790882000   32.3872994541
   7.6595007000    3.8686323000   34.6103263760
   9.4831914000    2.5790882000   32.3872994541
  10.3950367000    3.8686323000   34.6103263760
  12.2187274000    2.5790882000   32.3872994541
  -0.5471073000    3.8686323000   34.6103263760
   0.3647380000    5.1581764000   32.3872994541
   1.2765833000    6.4477205000   34.6103263760
   3.1002740000    5.1581764000   32.3872994541
   4.0121193000    6.4477205000   34.6103263760
   5.8358100000    5.1581764000   32.3872994541
   6.7476553000    6.4477205000   34.6103263760
   8.5713460000    5.1581764000   32.3872994541
   9.4831913000    6.4477205000   34.6103263760
  11.3068820000    5.1581764000   32.3872994541
  -1.4589527000    6.4477205000   34.6103263760
  -0.5471074000    7.7372646000   32.3872994541
   0.3647379000    9.0268087000   34.6103263760
   2.1884286000    7.7372646000   32.3872994541
   3.1002739000    9.0268087000   34.6103263760
   4.9239646000    7.7372646000   32.3872994541
   5.8358099000    9.0268087000   34.6103263760
   7.6595006000    7.7372646000   32.3872994541
   8.5713459000    9.0268087000   34.6103263760
  10.3950366000    7.7372646000   32.3872994541
  -2.3707981000    9.0268087000   34.6103263760
  -1.4589528000   10.3163528000   32.3872994541
  -0.5471075000   11.6058969000   34.6103263760
   1.2765832000   10.3163528000   32.3872994541
   2.1884285000   11.6058969000   34.6103263760
   4.0121192000   10.3163528000   32.3872994541
   4.9239645000   11.6058969000   34.6103263760
   6.7476552000   10.3163528000   32.3872994541
   7.6595005000   11.6058969000   34.6103263760
   9.4831912000   10.3163528000   32.3872994541
  -3.2826435000   11.6058969000   34.6103263760
   2.1884288000    0.0000000000   36.8372868641
   3.1002741000    1.2895441000   39.0714276718
   4.9239648000    0.0000000000   36.8372868641
   5.8358101000    1.2895441000   39.0714276718
   7.6595008000    0.0000000000   36.8372868641
   8.5713461000    1.2895441000   39.0714276718
  10.3950368000    0.0000000000   36.8372868641
  11.3068821000    1.2895441000   39.0714276718
  13.1305728000    0.0000000000   36.8372868641
   0.3647381000    1.2895441000   39.0714276718
   1.2765834000    2.5790882000   36.8372868641
   2.1884287000    3.8686323000   39.0714276718
   4.0121194000    2.5790882000   36.8372868641
   4.9239647000    3.8686323000   39.0714276718
   6.7476554000    2.5790882000   36.8372868641
   7.6595007000    3.8686323000   39.0714276718
   9.4831914000    2.5790882000   36.8372868641
  10.3950367000    3.8686323000   39.0714276718
  12.2187274000    2.5790882000   36.8372868641
  -0.5471073000    3.8686323000   39.0714276718
   0.3647380000    5.1581764000   36.8372868641
   1.2765833000    6.4477205000   39.0714276718
   3.1002740000    5.1581764000   36.8372868641
   4.0121193000    6.4477205000   39.0714276718
   5.8358100000    5.1581764000   36.8372868641
   6.7476553000    6.4477205000   39.0714276718
   8.5713460000    5.1581764000   36.8372868641
   9.4831913000    6.4477205000   39.0714276718
  11.3068820000    5.1581764000   36.8372868641
  -1.4589527000    6.4477205000   39.0714276718
  -0.5471074000    7.7372646000   36.8372868641
   0.3647379000    9.0268087000   39.0714276718
   2.1884286000    7.7372646000   36.8372868641
   3.1002739000    9.0268087000   39.0714276718
   4.9239646000    7.7372646000   36.8372868641
   5.8358099000    9.0268087000   39.0714276718
   7.6595006000    7.7372646000   36.8372868641
   8.5713459000    9.0268087000   39.0714276718
  10.3950366000    7.7372646000   36.8372868641
  -2.3707981000    9.0268087000   39.0714276718
  -1.4589528000   10.3163528000   36.8372868641
  -0.5471075000   11.6058969000   39.0714276718
   1.2765832000   10.3163528000   36.8372868641
   2.1884285000   11.6058969000   39.0714276718
   4.0121192000   10.3163528000   36.8372868641
   4.9239645000   11.6058969000   39.0714276718
   6.7476552000   10.3163528000   36.8372868641
   7.6595005000   11.6058969000   39.0714276718
   9.4831912000   10.3163528000   36.8372868641
  -3.2826435000   11.6058969000   39.0714276718
   2.1884288000    0.0000000000   41.3056933547
   3.1002741000    1.2895441000   43.5386478487
   4.9239648000    0.0000000000   41.3056933547
   5.8358101000    1.2895441000   43.5386478487
   7.6595008000    0.0000000000   41.3056933547
   8.5713461000    1.2895441000   43.5386478487
  10.3950368000    0.0000000000   41.3056933547
  11.3068821000    1.2895441000   43.5386478487
  13.1305728000    0.0000000000   41.3056933547
   0.3647381000    1.2895441000   43.5386478487
   1.2765834000    2.5790882000   41.3056933547
   2.1884287000    3.8686323000   43.5386478487
   4.0121194000    2.5790882000   41.3056933547
   4.9239647000    3.8686323000   43.5386478487
   6.7476554000    2.5790882000   41.3056933547
   7.6595007000    3.8686323000   43.5386478487
   9.4831914000    2.5790882000   41.3056933547
  10.3950367000    3.8686323000   43.5386478487
  12.2187274000    2.5790882000   41.3056933547
  -0.5471073000    3.8686323000   43.5386478487
   0.3647380000    5.1581764000   41.3056933547
   1.2765833000    6.4477205000   43.5386478487
   3.1002740000    5.1581764000   41.3056933547
   4.0121193000    6.4477205000   43.5386478487
   5.8358100000    5.1581764000   41.3056933547
   6.7476553000    6.4477205000   43.5386478487
   8.5713460000    5.1581764000   41.3056933547
   9.4831913000    6.4477205000   43.5386478487
  11.3068820000    5.1581764000   41.3056933547
  -1.4589527000    6.4477205000   43.5386478487
  -0.5471074000    7.7372646000   41.3056933547
   0.3647379000    9.0268087000   43.5386478487
   2.1884286000    7.7372646000   41.3056933547
   3.1002739000    9.0268087000   43.5386478487
   4.9239646000    7.7372646000   41.3056933547
   5.8358099000    9.0268087000   43.5386478487
   7.6595006000    7.7372646000   41.3056933547
   8.5713459000    9.0268087000   43.5386478487
  10.3950366000    7.7372646000   41.3056933547
  -2.3707981000    9.0268087000   43.5386478487
  -1.4589528000   10.3163528000   41.3056933547
  -0.5471075000   11.6058969000   43.5386478487
   1.2765832000   10.3163528000   41.3056933547
   2.1884285000   11.6058969000   43.5386478487
   4.0121192000   10.3163528000   41.3056933547
   4.9239645000   11.6058969000   43.5386478487
   6.7476552000   10.3163528000   41.3056933547
   7.6595005000   11.6058969000   43.5386478487
   9.4831912000   10.3163528000   41.3056933547
  -3.2826435000   11.6058969000   43.5386478487
   2.1884288000    0.0000000000   45.7704160291
   3.1002741000    1.2895441000   47.9980633305
   4.9239648000    0.0000000000   45.7704160291
   5.8358101000    1.2895441000   47.9980633305
   7.6595008000    0.0000000000   45.7704160291
   8.5713461000    1.2895441000   47.9980633305
  10.3950368000    0.0000000000   45.7704160291
  11.3068821000    1.2895441000   47.9980633305
  13.1305728000    0.0000000000   45.7704160291
   0.3647381000    1.2895441000   47.9980633305
   1.2765834000    2.5790882000   45.7704160291
   2.1884287000    3.8686323000   47.9980633305
   4.0121194000    2.5790882000   45.7704160291
   4.9239647000    3.8686323000   47.9980633305
   6.7476554000    2.5790882000   45.7704160291
   7.6595007000    3.8686323000   47.9980633305
   9.4831914000    2.5790882000   45.7704160291
  10.3950367000    3.8686323000   47.9980633305
  12.2187274000    2.5790882000   45.7704160291
  -0.5471073000    3.8686323000   47.9980633305
   0.3647380000    5.1581764000   45.7704160291
   1.2765833000    6.4477205000   47.9980633305
   3.1002740000    5.1581764000   45.7704160291
   4.0121193000    6.4477205000   47.9980633305
   5.8358100000    5.1581764000   45.7704160291
   6.7476553000    6.4477205000   47.9980633305
   8.5713460000    5.1581764000   45.7704160291
   9.4831913000    6.4477205000   47.9980633305
  11.3068820000    5.1581764000   45.7704160291
  -1.4589527000    6.4477205000   47.9980633305
  -0.5471074000    7.7372646000   45.7704160291
   0.3647379000    9.0268087000   47.9980633305
   2.1884286000    7.7372646000   45.7704160291
   3.1002739000    9.0268087000   47.9980633305
   4.9239646000    7.7372646000   45.7704160291
   5.8358099000    9.0268087000   47.9980633305
   7.6595006000    7.7372646000   45.7704160291
   8.5713459000    9.0268087000   47.9980633305
  10.3950366000    7.7372646000   45.7704160291
  -2.3707981000    9.0268087000   47.9980633305
  -1.4589528000   10.3163528000   45.7704160291
  -0.5471075000   11.6058969000   47.9980633305
   1.2765832000   10.3163528000   45.7704160291
   2.1884285000   11.6058969000   47.9980633305
   4.0121192000   10.3163528000   45.7704160291
   4.9239645000   11.6058969000   47.9980633305
   6.7476552000   10.3163528000   45.7704160291
   7.6595005000   11.6058969000   47.9980633305
   9.4831912000   10.3163528000   45.7704160291
  -3.2826435000   11.6058969000   47.9980633305
   2.1884288000    0.0000000000   50.2318295128
   3.1002741000    1.2895441000   52.3347890048
   4.9239648000    0.0000000000   50.2318295128
   5.8358101000    1.2895441000   52.3347890048
   7.6595008000    0.0000000000   50.2318295128
   8.5713461000    1.2895441000   52.3347890048
  10.3950368000    0.0000000000   50.2318295128
  11.3068821000    1.2895441000   52.3347890048
  13.1305728000    0.0000000000   50.2318295128
   0.3647381000    1.2895441000   52.3347890048
   1.2765834000    2.5790882000   50.2318295128
   2.1884287000    3.8686323000   52.3347890048
   4.0121194000    2.5790882000   50.2318295128
   4.9239647000    3.8686323000   52.3347890048
   6.7476554000    2.5790882000   50.2318295128
   7.6595007000    3.8686323000   52.3347890048
   9.4831914000    2.5790882000   50.2318295128
  10.3950367000    3.8686323000   52.3347890048
  12.2187274000    2.5790882000   50.2318295128
  -0.5471073000    3.8686323000   52.3347890048
   0.3647380000    5.1581764000   50.2318295128
   1.2765833000    6.4477205000   52.3347890048
   3.1002740000    5.1581764000   50.2318295128
   4.0121193000    6.4477205000   52.3347890048
   5.8358100000    5.1581764000   50.2318295128
   6.7476553000    6.4477205000   52.3347890048
   8.5713460000    5.1581764000   50.2318295128
   9.4831913000    6.4477205000   52.3347890048
  11.3068820000    5.1581764000   50.2318295128
  -1.4589527000    6.4477205000   52.3347890048
  -0.5471074000    7.7372646000   50.2318295128
   0.3647379000    9.0268087000   52.3347890048
   2.1884286000    7.7372646000   50.2318295128
   3.1002739000    9.0268087000   52.3347890048
   4.9239646000    7.7372646000   50.2318295128
   5.8358099000    9.0268087000   52.3347890048
   7.6595006000    7.7372646000   50.2318295128
   8.5713459000    9.0268087000   52.3347890048
  10.3950366000    7.7372646000   50.2318295128
  -2.3707981000    9.0268087000   52.3347890048
  -1.4589528000   10.3163528000   50.2318295128
  -0.5471075000   11.6058969000   52.3347890048
   1.2765832000   10.3163528000   50.2318295128
   2.1884285000   11.6058969000   52.3347890048
   4.0121192000   10.3163528000   50.2318295128
   4.9239645000   11.6058969000   52.3347890048
   6.7476552000   10.3163528000   50.2318295128
   7.6595005000   11.6058969000   52.3347890048
   9.4831912000   10.3163528000   50.2318295128
  -3.2826435000   11.6058969000   52.3347890048
