Al1 
1.0
9.9290805389638193e-01 0.0000000000000000e+00 0.0000000000000000e+00 
8.7190986412990223e-01 1.6171729506936849e-02 0.0000000000000000e+00 
9.3585048431850237e-01 7.6384960535879976e-03 2.3018089381209059e-02 
Al 
1 
cartesian
   0.0000000000    0.0000000000    0.0000000000
