Mo4 
1.0
4.0028914311881421e+00 0.0000000000000000e+00 0.0000000000000000e+00 
-3.3847683075468209e-17 4.0028914311881421e+00 0.0000000000000000e+00 
-2.3607623963217771e-17 -2.9295144479997265e-17 4.0028914311881421e+00 
Mo 
4 
Cartesian
   4.0028914312    4.0028914312    4.0028914312
   4.0028914312    2.0014457156    2.0014457156
   2.0014457156    4.0028914312    2.0014457156
   2.0014457156    2.0014457156    4.0028914312
