POSCAR file written by OVITO
1
13.6419306 0.0 0.0
-0.0883641 14.1952648 0.0
0.3888531 0.3620755 13.7659092
H C 
4 1 
Cartesian
6.5356655 7.8100043 6.0306034
8.051425 6.9818544 5.9525634
6.4933357 6.1055241 5.4106336
6.9019056 6.3088141 7.0944233
6.9999958 6.7891741 6.1281834
