POSCAR file written by OVITO
1
10.3366776 0.0 0.0
0.0205768 10.3142166 0.0
0.2027338 0.1023547 9.8667642
H C 
4 1 
Cartesian
5.9975172 5.683168 4.617559
4.4558974 5.276598 3.8099191
4.955307 4.336298 5.276669
5.7862973 4.1163778 3.8311091
5.299757 4.8610578 4.392869
