 H  C 
 1.0000000000000000
     9.8798750646811069    0.0000000000000000    0.0000000000000000
     0.0826735117633884    9.8414828102878875    0.0000000000000000
     0.1785444208512850   -0.2445447026052566   10.2512145253850200
   H   C
   4   1
Cartesian
  5.4025986208332224  3.8972461712447202  3.6861313893304222
  3.9951754626664751  4.6332908356227058  4.5335096520832412
  5.6225534434647244  5.4524260568026186  4.5509580659901410
  5.3577337709118984  3.9396570250038772  5.5052263155209333
  5.0764582764930974  4.5063867704959941  4.5489865836788166
