ATOMIC_SPECIES
H 1.008 H_ONCV_PBE-1.0.upf
C 12.010 C_ONCV_PBE-1.0.upf

LATTICE_CONSTANT
1.8897261254578281

LATTICE_VECTORS
9.270692584805424 0.0 0.0 
0.01282384569524753 9.562095202737858 0.0 
0.16956077473517553 -0.030030528263640357 9.586097955682344 

ATOMIC_POSITIONS
Cartesian    # Cartesian(Unit is LATTICE_CONSTANT)
H
0.0
4
5.092906051636 3.892428715541 3.458357779363 1 1 1
3.803610942086 4.550057118756 4.167057547630 1 1 1
5.219812881472 5.333210396361 4.208595102670 1 1 1
5.008148307232 3.980023448407 5.084711945455 1 1 1
C
0.0
1
4.787734579020 4.439473905493 4.223441759937 1 1 1
