Al 
 1.0000000000000000
     8.3598251083796260    0.0000000000000000    0.0000000000000000
    -0.1014062409602743    8.7520905745998139    0.0000000000000000
    -0.0687187698129919    0.2297954247305231    8.4431009214511974
  Al
  32
Cartesian
  6.1683189190564951  4.5502784129692708  6.3296577854868010
  6.1965525638957679  6.5680765848084750  0.0029863609922990
  2.0396624544096955  0.1732344670827352  6.3322678633817251
  6.2130901492377939  2.2989932295758888  4.2302216016831782
 -0.0520945632303641  4.3765674258355460 -0.0019779716557334
 -0.0014490531239594  0.0012499082614180 -0.0010991018816276
 -0.1314129164714025  6.7351442984719725  6.3334773536245867
  4.0456687581733002  6.7364197513151751  6.3249997121311603
 -0.0937651071923047  6.6208677247742465  2.1123046275329069
  4.0960677591482924  4.4926744904871390  4.2211873921508687
  4.0880108686193317  6.6202639448043019  2.1017079440084196
 -0.0795969571128076  2.3607658696959479  6.3291855425176813
  1.9821746056744098  6.6786660367944020  4.2232289243210728
  2.0619415753574173  2.1905908271047374  0.0029559804043806
 -0.0423314300948392  2.2481168790599964  2.1152302614428637
  6.2580765405823202  0.0586103911760227  2.1189007725333151
  6.2474387239813538  2.1793900662909729  0.0007938903889081
  2.0147829169000611  6.5645865794055860 -0.0001444989147900
 -0.0258599514919108  0.1117266738246711  4.2242506233803780
  4.1299576049645594  2.2428788732388525  2.1156576001669882
  4.1780305116160363  0.0007882753632893  0.0020554992942880
  6.1980770425407243  4.4325703498605566  2.1177678801435378
  2.0761042989529921  0.0635168993108198  2.1141164816869815
  4.1245594764626183  4.3737564400720563  0.0016920716977401
  4.1049053635275321  2.3584914444124645  6.3317740374727416
  2.0300731360268154  2.3110137563067226  4.2250342291910101
 -0.0825921356405149  4.5001269110724493  4.2197502279248438
  6.2200264777784939  0.1690022116720367  6.3297823964633926
  4.1402157372025750  0.1130411806163994  4.2157293332569230
  1.9873675974746883  4.5475018134559129  6.3330281685682630
  2.0218653030525817  4.4335739372995064  2.1107199808299701
  6.1513189901181322  6.6792290755422474  4.2210350859448864
