V2                                      
   1.0000000000000000     
     2.9975462819866885    0.0000000000000000    0.0000000000000000
     0.0000000000000000    2.9975462819866885    0.0000000000000000
     0.0000000000000000    0.0000000000000000    2.9975462819866885
   V 
     2
Direct
  0.0000000000000000  0.0000000000000000  0.0000000000000000
  0.5000000000000000  0.5000000000000000  0.5000000000000000

  0.00000000E+00  0.00000000E+00  0.00000000E+00
  0.00000000E+00  0.00000000E+00  0.00000000E+00
