Mo2 
1.0
3.1617699325125632e+00 0.0000000000000000e+00 0.0000000000000000e+00 
-2.9607253805968378e-17 3.1617699325125632e+00 0.0000000000000000e+00 
-6.1517551630255350e-18 -4.3742379676789617e-17 3.1617699325125632e+00 
Mo 
2 
Cartesian
   0.0000000000    0.0000000000    0.0000000000
   1.5808849663    1.5808849663    1.5808849663
