Li40                                    
   1.00000000000000     
     6.9018805596324686    0.0000000000000000    0.0000000000000000
     0.0000000000000000    8.1592726359368051    0.0000000000000000
     0.0000000000000000    0.0000000000000000    5.0741491137471364
   Li
    40
Direct
  0.0929926939123510  0.1164121140843607 -0.0005830561014952
  0.9070072800876469  0.8835878709156418 -0.0005830561014952
  0.5929927199123531  0.3835879009156440 -0.0005830561014952
  0.4070073150876461  0.6164121290843582 -0.0005830561014952
  0.0929926939123510  0.6164121290843582  0.4994169438985048
  0.9070072800876469  0.3835879009156440  0.4994169438985048
  0.5929927199123531  0.8835878709156418  0.4994169438985048
  0.4070073150876461  0.1164121140843607  0.4994169438985048
  0.8635595703334581  0.9029063079629907  0.3136578702707695
  0.1364404116665474  0.0970936770370115  0.3136578702707695
  0.3635595353334517  0.5970936920370093  0.3136578702707695
  0.6364404296665419  0.4029063379629862  0.3136578702707695
  0.8635595703334581  0.4029063379629862  0.8136578462707674
  0.1364404116665474  0.5970936920370093  0.8136578462707674
  0.3635595353334517  0.0970936770370115  0.8136578462707674
  0.6364404296665419  0.9029063079629907  0.8136578462707674
  0.9672253144440631  0.1171872717871092  0.5934256056750636
  0.0327747155559322  0.8828127512128892  0.5934256056750636
  0.4672252094440651  0.3828127212128937  0.5934256056750636
  0.5327747205559362  0.6171872487871108  0.5934256056750636
  0.9672253144440631  0.6171872487871108  0.0934255216750637
  0.0327747155559322  0.3828127212128937  0.0934255216750637
  0.4672252094440651  0.8828127512128892  0.0934255216750637
  0.5327747205559362  0.1171872717871092  0.0934255216750637
  0.3506627955762062  0.2679050157863044  0.1768808633851625
  0.6493372394237932  0.7320949842136956  0.1768808633851625
  0.8506627605762068  0.2320949842136955  0.1768808633851625
  0.1493372224237954  0.7679050157863044  0.1768808633851625
  0.3506627955762062  0.7679050157863044  0.6768808513851686
  0.6493372394237932  0.2320949842136955  0.6768808513851686
  0.8506627605762068  0.7320949842136956  0.6768808513851686
  0.1493372224237954  0.2679050157863044  0.6768808513851686
  0.2910147903786175  0.9120332779572811  0.3773987527705024
  0.7089852096213823  0.0879667290427159  0.3773987527705024
  0.7910147903786177  0.5879667220427189  0.3773987527705024
  0.2089852096213825  0.4120332779572811  0.3773987527705024
  0.2910147903786175  0.4120332779572811  0.8773988237705046
  0.7089852096213823  0.5879667220427189  0.8773988237705046
  0.7910147903786177  0.0879667290427159  0.8773988237705046
  0.2089852096213825  0.9120332779572811  0.8773988237705046
 
  0.00000000E+00  0.00000000E+00  0.00000000E+00
  0.00000000E+00  0.00000000E+00  0.00000000E+00
  0.00000000E+00  0.00000000E+00  0.00000000E+00
  0.00000000E+00  0.00000000E+00  0.00000000E+00
  0.00000000E+00  0.00000000E+00  0.00000000E+00
  0.00000000E+00  0.00000000E+00  0.00000000E+00
  0.00000000E+00  0.00000000E+00  0.00000000E+00
  0.00000000E+00  0.00000000E+00  0.00000000E+00
  0.00000000E+00  0.00000000E+00  0.00000000E+00
  0.00000000E+00  0.00000000E+00  0.00000000E+00
  0.00000000E+00  0.00000000E+00  0.00000000E+00
  0.00000000E+00  0.00000000E+00  0.00000000E+00
  0.00000000E+00  0.00000000E+00  0.00000000E+00
  0.00000000E+00  0.00000000E+00  0.00000000E+00
  0.00000000E+00  0.00000000E+00  0.00000000E+00
  0.00000000E+00  0.00000000E+00  0.00000000E+00
  0.00000000E+00  0.00000000E+00  0.00000000E+00
  0.00000000E+00  0.00000000E+00  0.00000000E+00
  0.00000000E+00  0.00000000E+00  0.00000000E+00
  0.00000000E+00  0.00000000E+00  0.00000000E+00
  0.00000000E+00  0.00000000E+00  0.00000000E+00
  0.00000000E+00  0.00000000E+00  0.00000000E+00
  0.00000000E+00  0.00000000E+00  0.00000000E+00
  0.00000000E+00  0.00000000E+00  0.00000000E+00
  0.00000000E+00  0.00000000E+00  0.00000000E+00
  0.00000000E+00  0.00000000E+00  0.00000000E+00
  0.00000000E+00  0.00000000E+00  0.00000000E+00
  0.00000000E+00  0.00000000E+00  0.00000000E+00
  0.00000000E+00  0.00000000E+00  0.00000000E+00
  0.00000000E+00  0.00000000E+00  0.00000000E+00
  0.00000000E+00  0.00000000E+00  0.00000000E+00
  0.00000000E+00  0.00000000E+00  0.00000000E+00
  0.00000000E+00  0.00000000E+00  0.00000000E+00
  0.00000000E+00  0.00000000E+00  0.00000000E+00
  0.00000000E+00  0.00000000E+00  0.00000000E+00
  0.00000000E+00  0.00000000E+00  0.00000000E+00
  0.00000000E+00  0.00000000E+00  0.00000000E+00
  0.00000000E+00  0.00000000E+00  0.00000000E+00
  0.00000000E+00  0.00000000E+00  0.00000000E+00
  0.00000000E+00  0.00000000E+00  0.00000000E+00
