 H  C 
 1.0000000000000000
    10.2367261060067527    0.0000000000000000    0.0000000000000000
    -0.0346261863267375   10.2005311344856118    0.0000000000000000
     0.0187125171049954   -0.2877036033468898   10.1387223234695405
   H   C
   4   1
Cartesian
  5.4841881289677898  4.0270999946533133  3.6497096470946935
  4.0087575009970164  4.7973814953926270  4.4846745115256601
  5.6856235336001708  5.6291384928582140  4.4893327218889594
  5.4093069147740369  4.0697743662743022  5.4429605580088856
  5.1318727749813222  4.6570637175210861  4.5053502163933086
