Al1 
1.0
6.4026766094815746e-01 0.0000000000000000e+00 0.0000000000000000e+00 
8.9305845794356431e-01 2.4670136019966725e-02 0.0000000000000000e+00 
8.1428436058792186e-01 6.0057917170911659e-03 1.4588637440111405e-02 
Al 
1 
cartesian
   0.0000000000    0.0000000000    0.0000000000
