 H  C 
 1.0000000000000000
     9.9193213885807126    0.0000000000000000    0.0000000000000000
    -0.2173653901662193   10.2755323107970593    0.0000000000000000
     0.1186150110737880    0.2896202544655653    9.9344970046193062
   H   C
   4   1
Cartesian
  5.2817111412662285  4.2720993140206867  3.5704936360516291
  3.8421079204414585  5.0873678364897703  4.3954256651426578
  5.4511462528029684  5.9330803692073424  4.4054305055952803
  5.2179172753645835  4.4133931310843106  5.3314633662651971
  4.9364297135004582  4.9478717051578975  4.4176266527597781
