 H  C 
 1.0000000000000000
    10.0996998868533314    0.0000000000000000    0.0000000000000000
     0.2049415786546817    9.7382385323498788    0.0000000000000000
     0.1133902346383803    0.1649790217553591   10.2980550056290312
   H   C
   4   1
Cartesian
  5.5419962891973249  4.0052926748933588  3.7040906496252113
  4.1157573921476196  4.7774035394564693  4.5516525510924835
  5.7852537827335251  5.5755836133464900  4.5625405846782776
  5.4859158766502851  4.1257612904847498  5.5286648650992687
  5.2196797389667209  4.6362213759265147  4.5716576791637458
