&FORCE_EVAL
  METHOD QS
  STRESS_TENSOR ANALYTICAL
  &PRINT
    &FORCES ON
    &END FORCES  
    &STRESS_TENSOR ON
    &END FORCES
  &END PRINT
  &DFT
    BASIS_SET_FILE_NAME BASIS_MOLOPT
    POTENTIAL_FILE_NAME GTH_POTENTIALS
    BASIS_SET_FILE_NAME BASIS_ADMM_MOLOPT
    BASIS_SET_FILE_NAME BASIS_ADMM
    &MGRID
      CUTOFF ${CUTOFF}
      REL_CUTOFF 60
    &END MGRID
    &QS
      EPS_DEFAULT 1.0E-13
    &END QS
    &SCF
      EPS_SCF 3.0E-7
      MAX_SCF 50
      &OUTER_SCF
        EPS_SCF 3.0E-7
        MAX_SCF 10 
      &END OUTER_SCF
      &OT
        MINIMIZER DIIS
        PRECONDITIONER FULL_SINGLE_INVERSE
      &END OT
    &END SCF
    &XC

      &XC_FUNCTIONAL PBE
      &END XC_FUNCTIONAL
    &END XC
  &END DFT
  &SUBSYS
    &CELL
      ABC LEFT FOR DPGEN
    &END CELL
    &COORD
    @include coord.xyz
    &END COORD
    &KIND O
      BASIS_SET DZVP-MOLOPT-SR-GTH 
      POTENTIAL GTH-PBE-q6
    &END KIND
    &KIND Mg   
      BASIS_SET DZVP-MOLOPT-SR-GTH
      POTENTIAL GTH-PBE-q10
    &END KIND
  &END SUBSYS
&END FORCE_EVAL

&GLOBAL
  PROJECT DPGEN 
&END GLOBAL
