 H  C 
 1.0000000000000000
    10.2797834452677890    0.0000000000000000    0.0000000000000000
     0.0038210971793976   10.2986430102474653    0.0000000000000000
    -0.2171439529589351    0.1825336014679905   10.0450756471851026
   H   C
   4   1
Cartesian
  5.4397432436405593  4.2403903319917831  3.6145063733383127
  3.9405686653774112  5.0542479993448195  4.4476523109147070
  5.6316901649318201  5.9013371786670330  4.4509796265065553
  5.3278378542496938  4.3666342531737241  5.3962909342345373
  5.0664399930483377  4.9126481072327755  4.4608319176594708
