#Parameters
SYSTEM  =  dpgen
PREC    =  A
ISART   =  0
ICHARG  =  2
#Electronic Relaxation 
ENCUT   =  650
NELM    =  100
NELMIN  =  6
NELMDL  =  -5
EDIFF   =  1e-06
LREAL   =  False
ALGO    =  Fast  # or normal
#Ionic relaxation
IBRION  =  2
POTIM   =  0.2
ISIF    =  3
EDIFFG  =  -0.01
ISYM    =  0
NSW     =  100
ISMEAR  =  0
SIGMA   =  0.1
# Write flags
LWAVE    =  False
LCHARG   =  False
#parallel related
#KPAR   = 4
#NPAR    =  1
KSPACING = 0.2
KGAMMA  = False

PSTRESS = 0.0
