POSCAR file written by OVITO
1
8.3669443 0.0 0.0
-0.1708415 8.4156113 0.0
-0.1796798 -0.2017218 8.6053791
H C 
4 1 
Cartesian
4.4687476 3.3835032 2.9142362
3.7632275 3.0155432 4.508656
3.1961379 4.5431128 3.7006359
4.8514076 4.413403 4.2964358
4.0440874 3.842953 3.822206
