POSCAR file written by OVITO
1
10.2913618 0.0 0.0
-0.076414 10.0906868 0.0
-0.1956623 -0.2709808 9.9216738
H C 
4 1 
Cartesian
5.6772008 4.0265179 3.79525
4.1445408 4.0167379 4.5976396
4.8136912 5.5685077 3.90638
5.627111 4.6975179 5.3567095
5.0523009 4.5987678 4.4207196
