POSCAR file written by OVITO
1
13.5854416 0.0 0.0
0.15419 13.9013548 0.0
0.327213 0.3641186 13.6214924
H C 
4 1 
Cartesian
7.725441 7.4288378 6.5290766
7.3843308 5.5855179 6.2946367
6.9640408 6.7916184 4.9395066
6.1039705 6.7896376 6.4625168
7.0538607 6.6614476 6.0721664
