Al1 
1.0
5.1962337600558017e-01 0.0000000000000000e+00 0.0000000000000000e+00 
7.7015283686821623e-01 2.3582102183916275e-02 0.0000000000000000e+00 
8.8645171326257188e-01 1.3693290237640118e-02 9.0982527300307661e-03 
Al 
1 
cartesian
   0.0000000000    0.0000000000    0.0000000000
