Al1 
1.0
9.0592670804143993e-01 0.0000000000000000e+00 0.0000000000000000e+00 
7.0164106324818487e-01 2.1732588605303776e-02 0.0000000000000000e+00 
8.8666934784642748e-01 1.8228661223474250e-02 2.0519776281709610e-02 
Al 
1 
cartesian
   0.0000000000    0.0000000000    0.0000000000
