ATOMIC_SPECIES
Al 26.9815 pp_orb/Al_ONCV_PBE-1.0.upf

LATTICE_CONSTANT
1.8897261254578281

LATTICE_VECTORS
4.05 0.0 0.0
0.0 4.05 0.0
0.0 0.0 4.05

ATOMIC_POSITIONS
Cartesian    # Cartesian(Unit is LATTICE_CONSTANT)
Al
0.0
4
0.000000000000 0.000000000000 0.000000000000 1 1 1
0.000000000000 2.025000000000 2.025000000000 1 1 1
2.025000000000 0.000000000000 2.025000000000 1 1 1
2.025000000000 2.025000000000 0.000000000000 1 1 1
