Cu1
1.0
-1.810631 -1.810631 0.000000
-1.810631 -0.000000 -1.810631
0.000000 -1.810631 -1.810631
Cu
1
direct
0.000000 -0.000000 0.000000 Cu
