POSCAR file written by OVITO
1
13.2045736 0.0 0.0
-0.0855311 13.7401686 0.0
0.3763865 0.3504675 13.3245773
H C 
4 1 
Cartesian
6.8883072 7.6985259 5.864418
7.6752973 6.1926861 5.489378
5.8567572 6.2912459 5.3691478
6.7487374 6.2327261 6.9636078
6.7685871 6.5647459 5.9330978
