Al1 
1.0
7.3554024077214453e-01 0.0000000000000000e+00 0.0000000000000000e+00 
8.1638656898051709e-01 2.5391675987756768e-02 0.0000000000000000e+00 
6.2524529611437596e-01 9.3128812085326602e-03 1.3441851906291361e-02 
Al 
1 
cartesian
   0.0000000000    0.0000000000    0.0000000000
