POSCAR file written by OVITO
1
10.0613127 0.0 0.0
-0.065171 10.4694119 0.0
0.2867902 0.267041 10.15275
H C 
4 1 
Cartesian
5.9885164 5.6908579 4.1898141
5.2617264 4.1501179 3.866104
4.1781163 5.4698282 4.408144
5.1734963 4.743598 5.573524
5.1656861 5.0081282 4.5216441
