 H  C 
 1.0000000000000000
    10.0066190770746921    0.0000000000000000    0.0000000000000000
    -0.2212445281251404    9.7418847119128902    0.0000000000000000
    -0.0820729559489959    0.2414280491050733   10.2216262989583502
   H   C
   4   1
Cartesian
  5.2424356872037707  4.0326644990988578  3.6817915619611701
  3.7872484433599798  4.8132806050216645  4.5295133710972086
  5.4080770201020023  5.6093821869918985  4.5272000831686432
  5.1613289704453598  4.1631756739611969  5.4910854671468146
  4.8858908434898813  4.6760902574191476  4.5354621792723178
