POSCAR file written by OVITO
1
6.3537383 0.0 0.0
0.0585438 6.2865954 0.0
0.1501758 0.0012492 6.3449245
H C 
4 1 
Cartesian
3.6118412 3.8409622 3.2524266
3.6254215 2.9372718 1.7974267
2.1982112 2.8659022 2.8637868
3.7786513 2.1564319 3.4351969
3.2899113 2.9301322 2.8182168
