Al60
1.0
   2.8425227836728180    0.0000000000000000    0.0000000000000000
   0.0000000000000000    4.9233938829934365    0.0000000000000000
   0.0000000000000000    0.0000000000000000   77.3063938882625195
Al
60
direct
   0.0000000000000000    0.0000000000000000    0.0646777032081838 Al
   0.5000000000000000    0.1666666666666667    0.0946999305731367 Al
   0.5000000000000001    0.4999999999999999    0.0646777032081838 Al
   0.0000000000000000    0.3333333333333335    0.1247221579380895 Al
   0.0000000000000001    0.6666666666666667    0.0946999305731367 Al
   0.5000000000000001    0.8333333333333336    0.1247221579380895 Al
   0.0000000000000000    0.0000000000000004    0.1547443853030424 Al
   0.5000000000000000    0.1666666666666671    0.1847666126679952 Al
   0.5000000000000001    0.5000000000000003    0.1547443853030423 Al
   0.0000000000000000    0.3333333333333339    0.2147888400329480 Al
   0.0000000000000001    0.6666666666666671    0.1847666126679952 Al
   0.5000000000000001    0.8333333333333339    0.2147888400329480 Al
   0.0000000000000000    0.0000000000000007    0.2448110673979009 Al
   0.5000000000000000    0.1666666666666675    0.2748332947628537 Al
   0.5000000000000001    0.5000000000000007    0.2448110673979008 Al
   0.0000000000000000    0.3333333333333342    0.3048555221278065 Al
   0.0000000000000001    0.6666666666666675    0.2748332947628537 Al
   0.5000000000000001    0.8333333333333343    0.3048555221278065 Al
   0.0000000000000000    0.0000000000000011    0.3348777494927594 Al
   0.5000000000000000    0.1666666666666678    0.3648999768577122 Al
   0.5000000000000001    0.5000000000000010    0.3348777494927594 Al
   0.0000000000000000    0.3333333333333346    0.3949222042226651 Al
   0.0000000000000001    0.6666666666666679    0.3648999768577122 Al
   0.5000000000000001    0.8333333333333346    0.3949222042226651 Al
   0.0000000000000000    0.0000000000000015    0.4249444315876180 Al
   0.5000000000000000    0.1666666666666682    0.4549666589525707 Al
   0.5000000000000001    0.5000000000000013    0.4249444315876180 Al
   0.0000000000000000    0.3333333333333350    0.4849888863175236 Al
   0.0000000000000001    0.6666666666666682    0.4549666589525707 Al
   0.5000000000000001    0.8333333333333350    0.4849888863175236 Al
   0.6000000000000000    0.0000000000000018    0.5150111136824764 Al
   0.1000000000000004    0.1666666666666686    0.5450333410474293 Al
   0.1000000000000004    0.5000000000000018    0.5150111136824764 Al
   0.6000000000000001    0.3333333333333354    0.5750555684123820 Al
   0.6000000000000002    0.6666666666666685    0.5450333410474293 Al
   0.1000000000000004    0.8333333333333354    0.5750555684123820 Al
   0.6000000000000000    0.0000000000000022    0.6050777957773349 Al
   0.1000000000000004    0.1666666666666689    0.6351000231422878 Al
   0.1000000000000004    0.5000000000000022    0.6050777957773349 Al
   0.6000000000000001    0.3333333333333357    0.6651222505072406 Al
   0.6000000000000002    0.6666666666666690    0.6351000231422878 Al
   0.1000000000000004    0.8333333333333357    0.6651222505072405 Al
   0.6000000000000000    0.0000000000000026    0.6951444778721935 Al
   0.1000000000000004    0.1666666666666693    0.7251667052371463 Al
   0.1000000000000004    0.5000000000000026    0.6951444778721935 Al
   0.6000000000000001    0.3333333333333361    0.7551889326020992 Al
   0.6000000000000002    0.6666666666666694    0.7251667052371463 Al
   0.1000000000000004    0.8333333333333360    0.7551889326020991 Al
   0.6000000000000000    0.0000000000000030    0.7852111599670519 Al
   0.1000000000000004    0.1666666666666697    0.8152333873320048 Al
   0.1000000000000004    0.5000000000000029    0.7852111599670519 Al
   0.6000000000000001    0.3333333333333364    0.8452556146969575 Al
   0.6000000000000002    0.6666666666666697    0.8152333873320048 Al
   0.1000000000000004    0.8333333333333365    0.8452556146969575 Al
   0.6000000000000000    0.0000000000000033    0.8752778420619104 Al
   0.1000000000000004    0.1666666666666700    0.9053000694268633 Al
   0.1000000000000004    0.5000000000000033    0.8752778420619104 Al
   0.6000000000000001    0.3333333333333369    0.9353222967918161 Al
   0.6000000000000002    0.6666666666666701    0.9053000694268633 Al
   0.1000000000000004    0.8333333333333368    0.9353222967918161 Al
