Al1 
1.0
9.9053877966779680e-01 0.0000000000000000e+00 0.0000000000000000e+00 
5.3940028709160581e-01 1.8670361241875811e-02 0.0000000000000000e+00 
7.7381050613360713e-01 1.2800166920594798e-02 1.9826939886769979e-02 
Al 
1 
cartesian
   0.0000000000    0.0000000000    0.0000000000
