Al1 
1.0
5.4127259713610210e-01 0.0000000000000000e+00 0.0000000000000000e+00 
7.8618816929019986e-01 2.4081028936890111e-02 0.0000000000000000e+00 
6.7715811612933341e-01 8.3424435233163518e-03 1.5808741859753134e-02 
Al 
1 
cartesian
   0.0000000000    0.0000000000    0.0000000000
