#Basis setting
@SET SCALE_FACTOR 1.000
@SET NREPA 1
@SET NREPB 1
@SET NREPC 1
@SET CELL_A 10
@SET CELL_B 10
@SET CELL_C 10
@SET ANGLE_A 90.0
@SET ANGLE_B 90.0
@SET ANGLE_C 90.0
@SET COORDFILE coord.xyz
@SET CUTOFF 400
@SET JOBNAME DPGEN


&FORCE_EVAL
  METHOD QS
  STRESS_TENSOR ANALYTICAL
  &PRINT
    &FORCES ON
    &END FORCES  
    &STRESS_TENSOR ON
    &END STRESS_TENSOR
  &END PRINT

  &DFT
    BASIS_SET_FILE_NAME BASIS_MOLOPT
    POTENTIAL_FILE_NAME GTH_POTENTIALS
      &MGRID
      	CUTOFF ${CUTOFF} 
        REL_CUTOFF 60
      &END MGRID
      &QS
      	EPS_DEFAULT 1.0E-13
      &END QS
      &SCF
        SCF_GUESS RESTART         
      	EPS_SCF 3.0E-7
      	MAX_SCF 50
      	&OUTER_SCF	
          EPS_SCF 3.0E-7
          MAX_SCF 15 
      	&END OUTER_SCF
     	&OT  
          MINIMIZER  DIIS
          PRECONDITIONER FULL_SINGLE_INVERSE
        &END OT
      &END SCF
      &XC
########## This part is PBE ##########    	
    	&XC_FUNCTIONAL PBE
    	&END XC_FUNCTIONAL
########## This part is PBE ##########
      &END XC
########## This part controls the print information ##########
  &END DFT
  &SUBSYS 
    &CELL
      ABC [angstrom]   ${CELL_A}*${SCALE_FACTOR} ${CELL_B}*${SCALE_FACTOR} ${CELL_C}*${SCALE_FACTOR} 
      ALPHA_BETA_GAMMA ${ANGLE_A} ${ANGLE_B} ${ANGLE_C}
      MULTIPLE_UNIT_CELL ${NREPA} ${NREPB} ${NREPC}
    &END CELL
    &TOPOLOGY
      MULTIPLE_UNIT_CELL ${NREPA} ${NREPB} ${NREPC}
    &END TOPOLOGY
    &COORD
      @include ${COORDFILE}
    &END COORD
    &KIND H
      BASIS_SET DZVP-MOLOPT-SR-GTH
      POTENTIAL GTH-PBE-q1
    &END KIND
    &KIND C
      BASIS_SET DZVP-MOLOPT-SR-GTH
      POTENTIAL GTH-PBE-q4
    &END KIND
  &END SUBSYS
&END FORCE_EVAL

&GLOBAL
  PROJECT ${JOBNAME}
&END GLOBAL
