POSCAR file written by OVITO
1
9.873621 0.0 0.0
-0.0639553 10.2741099 0.0
0.2814403 0.2620595 9.9633542
H C 
4 1 
Cartesian
4.0420213 5.3366566 4.1883559
5.7951713 5.7527266 4.5638561
5.4061613 4.3194966 3.590936
4.9825212 4.3736763 5.408186
5.0686312 4.9061766 4.433106
