Al12
1.0
   4.0179999999999998    0.0000000000000000    0.0000000000000000
   0.0000000000000000    4.0179999999999998    0.0000000000000000
   0.0000000000000000    0.0000000000000000   12.9949999999999992
Al
12
direct
   0.5000000000000000    0.5000000000000000    0.7318968834166987 Al
   0.5000000000000000    0.5000000000000000    0.1135051943055022 Al
   0.0000000000000000    0.0000000000000000    0.1135051943055022 Al
   0.0000000000000000    0.5000000000000000    0.2681031165833013 Al
   0.0000000000000000    0.5000000000000000    0.8864948056944979 Al
   0.0000000000000000    0.0000000000000000    0.4227010388611004 Al
   0.5000000000000000    0.0000000000000000    0.2681031165833013 Al
   0.5000000000000000    0.0000000000000000    0.8864948056944979 Al
   0.0000000000000000    0.0000000000000000    0.7318968834166987 Al
   0.0000000000000000    0.5000000000000000    0.5772989611388996 Al
   0.5000000000000000    0.5000000000000000    0.4227010388611004 Al
   0.5000000000000000    0.0000000000000000    0.5772989611388996 Al
