POSCAR file written by OVITO
1
9.993496 0.0 0.0
0.0922882 10.0913401 0.0
0.0547247 0.1374547 10.2576313
H C 
4 1 
Cartesian
4.2804699 4.3072143 5.0757523
5.2882795 5.809814 4.9089824
4.7731495 4.7337842 3.5317328
6.0472798 4.3069139 4.7486725
5.0888295 4.769074 4.5647326
