Al1 
1.0
9.0904675499270871e-01 0.0000000000000000e+00 0.0000000000000000e+00 
7.1357506069253507e-01 2.0653299473695933e-02 0.0000000000000000e+00 
5.6191429011053162e-01 6.8530669078996310e-03 8.2949112079975656e-03 
Al 
1 
cartesian
   0.0000000000    0.0000000000    0.0000000000
