Al1 
1.0
7.9430397140351772e-01 0.0000000000000000e+00 0.0000000000000000e+00 
6.7703587724520653e-01 2.0197502612753639e-02 0.0000000000000000e+00 
8.9944450316391611e-01 1.2190061829841534e-02 1.8455625620951665e-02 
Al 
1 
cartesian
   0.0000000000    0.0000000000    0.0000000000
