POSCAR file written by OVITO
1
10.0 0.0 0.0
0.0 10.0 0.0
0.0 0.0 10.0
H C 
4 1 
Cartesian
5.3815436 4.0686078 3.6057303
3.9453964 4.8032055 4.3846884
5.5209246 5.6545029 4.4270873
5.2818532 4.1641479 5.3918266
5.032506 4.6725517 4.4523235
