POSCAR file written by OVITO
1
10.0655479 0.0 0.0
0.0929535 10.1640978 0.0
0.0551193 0.1384457 10.3315888
H C 
4 1 
Cartesian
4.859426 4.9654828 5.6419111
5.724556 5.6283431 4.2346211
4.1853261 4.699843 4.0833511
5.8486462 4.004653 4.387301
5.1187062 4.8032527 4.6017814
