Al1 
1.0
6.2808818210241246e-01 0.0000000000000000e+00 0.0000000000000000e+00 
6.2949227090630400e-01 1.5699128478506564e-02 0.0000000000000000e+00 
5.9031653449750210e-01 9.0790581254778426e-03 1.8332430081517040e-02 
Al 
1 
cartesian
   0.0000000000    0.0000000000    0.0000000000
