Al1 
1.0
5.5550486411663158e-01 0.0000000000000000e+00 0.0000000000000000e+00 
6.8070960410020875e-01 1.4350480968449014e-02 0.0000000000000000e+00 
9.6801337243813057e-01 1.7342606777491703e-02 2.0266814112522992e-02 
Al 
1 
cartesian
   0.0000000000    0.0000000000    0.0000000000
