 H  C 
 1.0000000000000000
    10.2565601854242576    0.0000000000000000    0.0000000000000000
    -0.2453177497021428    9.8128484191062633    0.0000000000000000
    -0.2571031518912531   -0.3012912337077097    9.8293471193878226
   H   C
   4   1
Cartesian
  5.3124245508577435  3.8752597666106885  3.5410283200580350
  3.7983152650999248  4.5956881076674545  4.3438696384951809
  5.4482518080275399  5.4043556772439709  4.3511704912908664
  5.1930516331934484  3.9052881736244305  5.2770182000515602
  4.9139208884338137  4.4696440158681341  4.3631439093486790
