POSCAR file written by OVITO
1
18.0116253 0.0 0.0
0.2622325 18.1716671 0.0
0.2671786 0.1354696 18.2286835
H C 
4 1 
Cartesian
9.6671314 8.1322594 7.1379523
8.2399616 8.4234591 8.1203423
9.6354914 9.605319 8.3035822
9.7811814 7.9719192 8.9461022
9.3045406 8.5512486 8.1168623
