Mo500 
1.0
1.3677680000000001e+01 0.0000000000000000e+00 0.0000000000000000e+00 
-4.5592269999999999e+00 1.2895441000000000e+01 0.0000000000000000e+00 
0.0000000000000000e+00 0.0000000000000000e+00 6.2437561000000002e+01 
Mo 
500 
Cartesian
   0.0000000000    0.0000000000   10.1353019644
   0.9118453000    1.2895441000   12.2381990189
   2.7355360000    0.0000000000   10.1353019644
   3.6473813000    1.2895441000   12.2381990189
   5.4710720000    0.0000000000   10.1353019644
   6.3829173000    1.2895441000   12.2381990189
   8.2066080000    0.0000000000   10.1353019644
   9.1184533000    1.2895441000   12.2381990189
  10.9421440000    0.0000000000   10.1353019644
  11.8539893000    1.2895441000   12.2381990189
  -0.9118454000    2.5790882000   10.1353019644
  -0.0000001000    3.8686323000   12.2381990189
   1.8236906000    2.5790882000   10.1353019644
   2.7355359000    3.8686323000   12.2381990189
   4.5592266000    2.5790882000   10.1353019644
   5.4710719000    3.8686323000   12.2381990189
   7.2947626000    2.5790882000   10.1353019644
   8.2066079000    3.8686323000   12.2381990189
  10.0302986000    2.5790882000   10.1353019644
  10.9421439000    3.8686323000   12.2381990189
  -1.8236908000    5.1581764000   10.1353019644
  -0.9118455000    6.4477205000   12.2381990189
   0.9118452000    5.1581764000   10.1353019644
   1.8236905000    6.4477205000   12.2381990189
   3.6473812000    5.1581764000   10.1353019644
   4.5592265000    6.4477205000   12.2381990189
   6.3829172000    5.1581764000   10.1353019644
   7.2947625000    6.4477205000   12.2381990189
   9.1184532000    5.1581764000   10.1353019644
  10.0302985000    6.4477205000   12.2381990189
  -2.7355362000    7.7372646000   10.1353019644
  -1.8236909000    9.0268087000   12.2381990189
  -0.0000002000    7.7372646000   10.1353019644
   0.9118451000    9.0268087000   12.2381990189
   2.7355358000    7.7372646000   10.1353019644
   3.6473811000    9.0268087000   12.2381990189
   5.4710718000    7.7372646000   10.1353019644
   6.3829171000    9.0268087000   12.2381990189
   8.2066078000    7.7372646000   10.1353019644
   9.1184531000    9.0268087000   12.2381990189
  -3.6473816000   10.3163528000   10.1353019644
  -2.7355363000   11.6058969000   12.2381990189
  -0.9118456000   10.3163528000   10.1353019644
  -0.0000003000   11.6058969000   12.2381990189
   1.8236904000   10.3163528000   10.1353019644
   2.7355357000   11.6058969000   12.2381990189
   4.5592264000   10.3163528000   10.1353019644
   5.4710717000   11.6058969000   12.2381990189
   7.2947624000   10.3163528000   10.1353019644
   8.2066077000   11.6058969000   12.2381990189
   0.0000000000    0.0000000000   14.4720276388
   0.9118453000    1.2895441000   16.6996749402
   2.7355360000    0.0000000000   14.4720276388
   3.6473813000    1.2895441000   16.6996749402
   5.4710720000    0.0000000000   14.4720276388
   6.3829173000    1.2895441000   16.6996749402
   8.2066080000    0.0000000000   14.4720276388
   9.1184533000    1.2895441000   16.6996749402
  10.9421440000    0.0000000000   14.4720276388
  11.8539893000    1.2895441000   16.6996749402
  -0.9118454000    2.5790882000   14.4720276388
  -0.0000001000    3.8686323000   16.6996749402
   1.8236906000    2.5790882000   14.4720276388
   2.7355359000    3.8686323000   16.6996749402
   4.5592266000    2.5790882000   14.4720276388
   5.4710719000    3.8686323000   16.6996749402
   7.2947626000    2.5790882000   14.4720276388
   8.2066079000    3.8686323000   16.6996749402
  10.0302986000    2.5790882000   14.4720276388
  10.9421439000    3.8686323000   16.6996749402
  -1.8236908000    5.1581764000   14.4720276388
  -0.9118455000    6.4477205000   16.6996749402
   0.9118452000    5.1581764000   14.4720276388
   1.8236905000    6.4477205000   16.6996749402
   3.6473812000    5.1581764000   14.4720276388
   4.5592265000    6.4477205000   16.6996749402
   6.3829172000    5.1581764000   14.4720276388
   7.2947625000    6.4477205000   16.6996749402
   9.1184532000    5.1581764000   14.4720276388
  10.0302985000    6.4477205000   16.6996749402
  -2.7355362000    7.7372646000   14.4720276388
  -1.8236909000    9.0268087000   16.6996749402
  -0.0000002000    7.7372646000   14.4720276388
   0.9118451000    9.0268087000   16.6996749402
   2.7355358000    7.7372646000   14.4720276388
   3.6473811000    9.0268087000   16.6996749402
   5.4710718000    7.7372646000   14.4720276388
   6.3829171000    9.0268087000   16.6996749402
   8.2066078000    7.7372646000   14.4720276388
   9.1184531000    9.0268087000   16.6996749402
  -3.6473816000   10.3163528000   14.4720276388
  -2.7355363000   11.6058969000   16.6996749402
  -0.9118456000   10.3163528000   14.4720276388
  -0.0000003000   11.6058969000   16.6996749402
   1.8236904000   10.3163528000   14.4720276388
   2.7355357000   11.6058969000   16.6996749402
   4.5592264000   10.3163528000   14.4720276388
   5.4710717000   11.6058969000   16.6996749402
   7.2947624000   10.3163528000   14.4720276388
   8.2066077000   11.6058969000   16.6996749402
   0.0000000000    0.0000000000   18.9314431206
   0.9118453000    1.2895441000   21.1646473649
   2.7355360000    0.0000000000   18.9314431206
   3.6473813000    1.2895441000   21.1646473649
   5.4710720000    0.0000000000   18.9314431206
   6.3829173000    1.2895441000   21.1646473649
   8.2066080000    0.0000000000   18.9314431206
   9.1184533000    1.2895441000   21.1646473649
  10.9421440000    0.0000000000   18.9314431206
  11.8539893000    1.2895441000   21.1646473649
  -0.9118454000    2.5790882000   18.9314431206
  -0.0000001000    3.8686323000   21.1646473649
   1.8236906000    2.5790882000   18.9314431206
   2.7355359000    3.8686323000   21.1646473649
   4.5592266000    2.5790882000   18.9314431206
   5.4710719000    3.8686323000   21.1646473649
   7.2947626000    2.5790882000   18.9314431206
   8.2066079000    3.8686323000   21.1646473649
  10.0302986000    2.5790882000   18.9314431206
  10.9421439000    3.8686323000   21.1646473649
  -1.8236908000    5.1581764000   18.9314431206
  -0.9118455000    6.4477205000   21.1646473649
   0.9118452000    5.1581764000   18.9314431206
   1.8236905000    6.4477205000   21.1646473649
   3.6473812000    5.1581764000   18.9314431206
   4.5592265000    6.4477205000   21.1646473649
   6.3829172000    5.1581764000   18.9314431206
   7.2947625000    6.4477205000   21.1646473649
   9.1184532000    5.1581764000   18.9314431206
  10.0302985000    6.4477205000   21.1646473649
  -2.7355362000    7.7372646000   18.9314431206
  -1.8236909000    9.0268087000   21.1646473649
  -0.0000002000    7.7372646000   18.9314431206
   0.9118451000    9.0268087000   21.1646473649
   2.7355358000    7.7372646000   18.9314431206
   3.6473811000    9.0268087000   21.1646473649
   5.4710718000    7.7372646000   18.9314431206
   6.3829171000    9.0268087000   21.1646473649
   8.2066078000    7.7372646000   18.9314431206
   9.1184531000    9.0268087000   21.1646473649
  -3.6473816000   10.3163528000   18.9314431206
  -2.7355363000   11.6058969000   21.1646473649
  -0.9118456000   10.3163528000   18.9314431206
  -0.0000003000   11.6058969000   21.1646473649
   1.8236904000   10.3163528000   18.9314431206
   2.7355357000   11.6058969000   21.1646473649
   4.5592264000   10.3163528000   18.9314431206
   5.4710717000   11.6058969000   21.1646473649
   7.2947624000   10.3163528000   18.9314431206
   8.2066077000   11.6058969000   21.1646473649
   0.0000000000    0.0000000000   23.3980389218
   0.9118453000    1.2895441000   25.6316802290
   2.7355360000    0.0000000000   23.3980389218
   3.6473813000    1.2895441000   25.6316802290
   5.4710720000    0.0000000000   23.3980389218
   6.3829173000    1.2895441000   25.6316802290
   8.2066080000    0.0000000000   23.3980389218
   9.1184533000    1.2895441000   25.6316802290
  10.9421440000    0.0000000000   23.3980389218
  11.8539893000    1.2895441000   25.6316802290
  -0.9118454000    2.5790882000   23.3980389218
  -0.0000001000    3.8686323000   25.6316802290
   1.8236906000    2.5790882000   23.3980389218
   2.7355359000    3.8686323000   25.6316802290
   4.5592266000    2.5790882000   23.3980389218
   5.4710719000    3.8686323000   25.6316802290
   7.2947626000    2.5790882000   23.3980389218
   8.2066079000    3.8686323000   25.6316802290
  10.0302986000    2.5790882000   23.3980389218
  10.9421439000    3.8686323000   25.6316802290
  -1.8236908000    5.1581764000   23.3980389218
  -0.9118455000    6.4477205000   25.6316802290
   0.9118452000    5.1581764000   23.3980389218
   1.8236905000    6.4477205000   25.6316802290
   3.6473812000    5.1581764000   23.3980389218
   4.5592265000    6.4477205000   25.6316802290
   6.3829172000    5.1581764000   23.3980389218
   7.2947625000    6.4477205000   25.6316802290
   9.1184532000    5.1581764000   23.3980389218
  10.0302985000    6.4477205000   25.6316802290
  -2.7355362000    7.7372646000   23.3980389218
  -1.8236909000    9.0268087000   25.6316802290
  -0.0000002000    7.7372646000   23.3980389218
   0.9118451000    9.0268087000   25.6316802290
   2.7355358000    7.7372646000   23.3980389218
   3.6473811000    9.0268087000   25.6316802290
   5.4710718000    7.7372646000   23.3980389218
   6.3829171000    9.0268087000   25.6316802290
   8.2066078000    7.7372646000   23.3980389218
   9.1184531000    9.0268087000   25.6316802290
  -3.6473816000   10.3163528000   23.3980389218
  -2.7355363000   11.6058969000   25.6316802290
  -0.9118456000   10.3163528000   23.3980389218
  -0.0000003000   11.6058969000   25.6316802290
   1.8236904000   10.3163528000   23.3980389218
   2.7355357000   11.6058969000   25.6316802290
   4.5592264000   10.3163528000   23.3980389218
   5.4710717000   11.6058969000   25.6316802290
   7.2947624000   10.3163528000   23.3980389218
   8.2066077000   11.6058969000   25.6316802290
   0.0000000000    0.0000000000   27.8642600977
   0.9118453000    1.2895441000   30.0968399664
   2.7355360000    0.0000000000   27.8642600977
   3.6473813000    1.2895441000   30.0968399664
   5.4710720000    0.0000000000   27.8642600977
   6.3829173000    1.2895441000   30.0968399664
   8.2066080000    0.0000000000   27.8642600977
   9.1184533000    1.2895441000   30.0968399664
  10.9421440000    0.0000000000   27.8642600977
  11.8539893000    1.2895441000   30.0968399664
  -0.9118454000    2.5790882000   27.8642600977
  -0.0000001000    3.8686323000   30.0968399664
   1.8236906000    2.5790882000   27.8642600977
   2.7355359000    3.8686323000   30.0968399664
   4.5592266000    2.5790882000   27.8642600977
   5.4710719000    3.8686323000   30.0968399664
   7.2947626000    2.5790882000   27.8642600977
   8.2066079000    3.8686323000   30.0968399664
  10.0302986000    2.5790882000   27.8642600977
  10.9421439000    3.8686323000   30.0968399664
  -1.8236908000    5.1581764000   27.8642600977
  -0.9118455000    6.4477205000   30.0968399664
   0.9118452000    5.1581764000   27.8642600977
   1.8236905000    6.4477205000   30.0968399664
   3.6473812000    5.1581764000   27.8642600977
   4.5592265000    6.4477205000   30.0968399664
   6.3829172000    5.1581764000   27.8642600977
   7.2947625000    6.4477205000   30.0968399664
   9.1184532000    5.1581764000   27.8642600977
  10.0302985000    6.4477205000   30.0968399664
  -2.7355362000    7.7372646000   27.8642600977
  -1.8236909000    9.0268087000   30.0968399664
  -0.0000002000    7.7372646000   27.8642600977
   0.9118451000    9.0268087000   30.0968399664
   2.7355358000    7.7372646000   27.8642600977
   3.6473811000    9.0268087000   30.0968399664
   5.4710718000    7.7372646000   27.8642600977
   6.3829171000    9.0268087000   30.0968399664
   8.2066078000    7.7372646000   27.8642600977
   9.1184531000    9.0268087000   30.0968399664
  -3.6473816000   10.3163528000   27.8642600977
  -2.7355363000   11.6058969000   30.0968399664
  -0.9118456000   10.3163528000   27.8642600977
  -0.0000003000   11.6058969000   30.0968399664
   1.8236904000   10.3163528000   27.8642600977
   2.7355357000   11.6058969000   30.0968399664
   4.5592264000   10.3163528000   27.8642600977
   5.4710717000   11.6058969000   30.0968399664
   7.2947624000   10.3163528000   27.8642600977
   8.2066077000   11.6058969000   30.0968399664
   2.5987592000    0.0000000000   32.3407210336
   3.5106045000    1.2895441000   34.5733009023
   5.3342952000    0.0000000000   32.3407210336
   6.2461405000    1.2895441000   34.5733009023
   8.0698312000    0.0000000000   32.3407210336
   8.9816765000    1.2895441000   34.5733009023
  10.8053672000    0.0000000000   32.3407210336
  11.7172125000    1.2895441000   34.5733009023
  13.5409032000    0.0000000000   32.3407210336
   0.7750685000    1.2895441000   34.5733009023
   1.6869138000    2.5790882000   32.3407210336
   2.5987591000    3.8686323000   34.5733009023
   4.4224498000    2.5790882000   32.3407210336
   5.3342951000    3.8686323000   34.5733009023
   7.1579858000    2.5790882000   32.3407210336
   8.0698311000    3.8686323000   34.5733009023
   9.8935218000    2.5790882000   32.3407210336
  10.8053671000    3.8686323000   34.5733009023
  12.6290578000    2.5790882000   32.3407210336
  -0.1367769000    3.8686323000   34.5733009023
   0.7750684000    5.1581764000   32.3407210336
   1.6869137000    6.4477205000   34.5733009023
   3.5106044000    5.1581764000   32.3407210336
   4.4224497000    6.4477205000   34.5733009023
   6.2461404000    5.1581764000   32.3407210336
   7.1579857000    6.4477205000   34.5733009023
   8.9816764000    5.1581764000   32.3407210336
   9.8935217000    6.4477205000   34.5733009023
  11.7172124000    5.1581764000   32.3407210336
  -1.0486223000    6.4477205000   34.5733009023
  -0.1367770000    7.7372646000   32.3407210336
   0.7750683000    9.0268087000   34.5733009023
   2.5987590000    7.7372646000   32.3407210336
   3.5106043000    9.0268087000   34.5733009023
   5.3342950000    7.7372646000   32.3407210336
   6.2461403000    9.0268087000   34.5733009023
   8.0698310000    7.7372646000   32.3407210336
   8.9816763000    9.0268087000   34.5733009023
  10.8053670000    7.7372646000   32.3407210336
  -1.9604677000    9.0268087000   34.5733009023
  -1.0486224000   10.3163528000   32.3407210336
  -0.1367771000   11.6058969000   34.5733009023
   1.6869136000   10.3163528000   32.3407210336
   2.5987589000   11.6058969000   34.5733009023
   4.4224496000   10.3163528000   32.3407210336
   5.3342949000   11.6058969000   34.5733009023
   7.1579856000   10.3163528000   32.3407210336
   8.0698309000   11.6058969000   34.5733009023
   9.8935216000   10.3163528000   32.3407210336
  -2.8723131000   11.6058969000   34.5733009023
   2.5987592000    0.0000000000   36.8058807710
   3.5106045000    1.2895441000   39.0395220782
   5.3342952000    0.0000000000   36.8058807710
   6.2461405000    1.2895441000   39.0395220782
   8.0698312000    0.0000000000   36.8058807710
   8.9816765000    1.2895441000   39.0395220782
  10.8053672000    0.0000000000   36.8058807710
  11.7172125000    1.2895441000   39.0395220782
  13.5409032000    0.0000000000   36.8058807710
   0.7750685000    1.2895441000   39.0395220782
   1.6869138000    2.5790882000   36.8058807710
   2.5987591000    3.8686323000   39.0395220782
   4.4224498000    2.5790882000   36.8058807710
   5.3342951000    3.8686323000   39.0395220782
   7.1579858000    2.5790882000   36.8058807710
   8.0698311000    3.8686323000   39.0395220782
   9.8935218000    2.5790882000   36.8058807710
  10.8053671000    3.8686323000   39.0395220782
  12.6290578000    2.5790882000   36.8058807710
  -0.1367769000    3.8686323000   39.0395220782
   0.7750684000    5.1581764000   36.8058807710
   1.6869137000    6.4477205000   39.0395220782
   3.5106044000    5.1581764000   36.8058807710
   4.4224497000    6.4477205000   39.0395220782
   6.2461404000    5.1581764000   36.8058807710
   7.1579857000    6.4477205000   39.0395220782
   8.9816764000    5.1581764000   36.8058807710
   9.8935217000    6.4477205000   39.0395220782
  11.7172124000    5.1581764000   36.8058807710
  -1.0486223000    6.4477205000   39.0395220782
  -0.1367770000    7.7372646000   36.8058807710
   0.7750683000    9.0268087000   39.0395220782
   2.5987590000    7.7372646000   36.8058807710
   3.5106043000    9.0268087000   39.0395220782
   5.3342950000    7.7372646000   36.8058807710
   6.2461403000    9.0268087000   39.0395220782
   8.0698310000    7.7372646000   36.8058807710
   8.9816763000    9.0268087000   39.0395220782
  10.8053670000    7.7372646000   36.8058807710
  -1.9604677000    9.0268087000   39.0395220782
  -1.0486224000   10.3163528000   36.8058807710
  -0.1367771000   11.6058969000   39.0395220782
   1.6869136000   10.3163528000   36.8058807710
   2.5987589000   11.6058969000   39.0395220782
   4.4224496000   10.3163528000   36.8058807710
   5.3342949000   11.6058969000   39.0395220782
   7.1579856000   10.3163528000   36.8058807710
   8.0698309000   11.6058969000   39.0395220782
   9.8935216000   10.3163528000   36.8058807710
  -2.8723131000   11.6058969000   39.0395220782
   2.5987592000    0.0000000000   41.2729136351
   3.5106045000    1.2895441000   43.5061178794
   5.3342952000    0.0000000000   41.2729136351
   6.2461405000    1.2895441000   43.5061178794
   8.0698312000    0.0000000000   41.2729136351
   8.9816765000    1.2895441000   43.5061178794
  10.8053672000    0.0000000000   41.2729136351
  11.7172125000    1.2895441000   43.5061178794
  13.5409032000    0.0000000000   41.2729136351
   0.7750685000    1.2895441000   43.5061178794
   1.6869138000    2.5790882000   41.2729136351
   2.5987591000    3.8686323000   43.5061178794
   4.4224498000    2.5790882000   41.2729136351
   5.3342951000    3.8686323000   43.5061178794
   7.1579858000    2.5790882000   41.2729136351
   8.0698311000    3.8686323000   43.5061178794
   9.8935218000    2.5790882000   41.2729136351
  10.8053671000    3.8686323000   43.5061178794
  12.6290578000    2.5790882000   41.2729136351
  -0.1367769000    3.8686323000   43.5061178794
   0.7750684000    5.1581764000   41.2729136351
   1.6869137000    6.4477205000   43.5061178794
   3.5106044000    5.1581764000   41.2729136351
   4.4224497000    6.4477205000   43.5061178794
   6.2461404000    5.1581764000   41.2729136351
   7.1579857000    6.4477205000   43.5061178794
   8.9816764000    5.1581764000   41.2729136351
   9.8935217000    6.4477205000   43.5061178794
  11.7172124000    5.1581764000   41.2729136351
  -1.0486223000    6.4477205000   43.5061178794
  -0.1367770000    7.7372646000   41.2729136351
   0.7750683000    9.0268087000   43.5061178794
   2.5987590000    7.7372646000   41.2729136351
   3.5106043000    9.0268087000   43.5061178794
   5.3342950000    7.7372646000   41.2729136351
   6.2461403000    9.0268087000   43.5061178794
   8.0698310000    7.7372646000   41.2729136351
   8.9816763000    9.0268087000   43.5061178794
  10.8053670000    7.7372646000   41.2729136351
  -1.9604677000    9.0268087000   43.5061178794
  -1.0486224000   10.3163528000   41.2729136351
  -0.1367771000   11.6058969000   43.5061178794
   1.6869136000   10.3163528000   41.2729136351
   2.5987589000   11.6058969000   43.5061178794
   4.4224496000   10.3163528000   41.2729136351
   5.3342949000   11.6058969000   43.5061178794
   7.1579856000   10.3163528000   41.2729136351
   8.0698309000   11.6058969000   43.5061178794
   9.8935216000   10.3163528000   41.2729136351
  -2.8723131000   11.6058969000   43.5061178794
   2.5987592000    0.0000000000   45.7378860598
   3.5106045000    1.2895441000   47.9655333612
   5.3342952000    0.0000000000   45.7378860598
   6.2461405000    1.2895441000   47.9655333612
   8.0698312000    0.0000000000   45.7378860598
   8.9816765000    1.2895441000   47.9655333612
  10.8053672000    0.0000000000   45.7378860598
  11.7172125000    1.2895441000   47.9655333612
  13.5409032000    0.0000000000   45.7378860598
   0.7750685000    1.2895441000   47.9655333612
   1.6869138000    2.5790882000   45.7378860598
   2.5987591000    3.8686323000   47.9655333612
   4.4224498000    2.5790882000   45.7378860598
   5.3342951000    3.8686323000   47.9655333612
   7.1579858000    2.5790882000   45.7378860598
   8.0698311000    3.8686323000   47.9655333612
   9.8935218000    2.5790882000   45.7378860598
  10.8053671000    3.8686323000   47.9655333612
  12.6290578000    2.5790882000   45.7378860598
  -0.1367769000    3.8686323000   47.9655333612
   0.7750684000    5.1581764000   45.7378860598
   1.6869137000    6.4477205000   47.9655333612
   3.5106044000    5.1581764000   45.7378860598
   4.4224497000    6.4477205000   47.9655333612
   6.2461404000    5.1581764000   45.7378860598
   7.1579857000    6.4477205000   47.9655333612
   8.9816764000    5.1581764000   45.7378860598
   9.8935217000    6.4477205000   47.9655333612
  11.7172124000    5.1581764000   45.7378860598
  -1.0486223000    6.4477205000   47.9655333612
  -0.1367770000    7.7372646000   45.7378860598
   0.7750683000    9.0268087000   47.9655333612
   2.5987590000    7.7372646000   45.7378860598
   3.5106043000    9.0268087000   47.9655333612
   5.3342950000    7.7372646000   45.7378860598
   6.2461403000    9.0268087000   47.9655333612
   8.0698310000    7.7372646000   45.7378860598
   8.9816763000    9.0268087000   47.9655333612
  10.8053670000    7.7372646000   45.7378860598
  -1.9604677000    9.0268087000   47.9655333612
  -1.0486224000   10.3163528000   45.7378860598
  -0.1367771000   11.6058969000   47.9655333612
   1.6869136000   10.3163528000   45.7378860598
   2.5987589000   11.6058969000   47.9655333612
   4.4224496000   10.3163528000   45.7378860598
   5.3342949000   11.6058969000   47.9655333612
   7.1579856000   10.3163528000   45.7378860598
   8.0698309000   11.6058969000   47.9655333612
   9.8935216000   10.3163528000   45.7378860598
  -2.8723131000   11.6058969000   47.9655333612
   2.5987592000    0.0000000000   50.1993619811
   3.5106045000    1.2895441000   52.3022590356
   5.3342952000    0.0000000000   50.1993619811
   6.2461405000    1.2895441000   52.3022590356
   8.0698312000    0.0000000000   50.1993619811
   8.9816765000    1.2895441000   52.3022590356
  10.8053672000    0.0000000000   50.1993619811
  11.7172125000    1.2895441000   52.3022590356
  13.5409032000    0.0000000000   50.1993619811
   0.7750685000    1.2895441000   52.3022590356
   1.6869138000    2.5790882000   50.1993619811
   2.5987591000    3.8686323000   52.3022590356
   4.4224498000    2.5790882000   50.1993619811
   5.3342951000    3.8686323000   52.3022590356
   7.1579858000    2.5790882000   50.1993619811
   8.0698311000    3.8686323000   52.3022590356
   9.8935218000    2.5790882000   50.1993619811
  10.8053671000    3.8686323000   52.3022590356
  12.6290578000    2.5790882000   50.1993619811
  -0.1367769000    3.8686323000   52.3022590356
   0.7750684000    5.1581764000   50.1993619811
   1.6869137000    6.4477205000   52.3022590356
   3.5106044000    5.1581764000   50.1993619811
   4.4224497000    6.4477205000   52.3022590356
   6.2461404000    5.1581764000   50.1993619811
   7.1579857000    6.4477205000   52.3022590356
   8.9816764000    5.1581764000   50.1993619811
   9.8935217000    6.4477205000   52.3022590356
  11.7172124000    5.1581764000   50.1993619811
  -1.0486223000    6.4477205000   52.3022590356
  -0.1367770000    7.7372646000   50.1993619811
   0.7750683000    9.0268087000   52.3022590356
   2.5987590000    7.7372646000   50.1993619811
   3.5106043000    9.0268087000   52.3022590356
   5.3342950000    7.7372646000   50.1993619811
   6.2461403000    9.0268087000   52.3022590356
   8.0698310000    7.7372646000   50.1993619811
   8.9816763000    9.0268087000   52.3022590356
  10.8053670000    7.7372646000   50.1993619811
  -1.9604677000    9.0268087000   52.3022590356
  -1.0486224000   10.3163528000   50.1993619811
  -0.1367771000   11.6058969000   52.3022590356
   1.6869136000   10.3163528000   50.1993619811
   2.5987589000   11.6058969000   52.3022590356
   4.4224496000   10.3163528000   50.1993619811
   5.3342949000   11.6058969000   52.3022590356
   7.1579856000   10.3163528000   50.1993619811
   8.0698309000   11.6058969000   52.3022590356
   9.8935216000   10.3163528000   50.1993619811
  -2.8723131000   11.6058969000   52.3022590356
