 H  C 
 1.0000000000000000
     9.9503038604335234    0.0000000000000000    0.0000000000000000
     0.1337501243443564   10.0576518463451201    0.0000000000000000
     0.1150473097648867   -0.0564757371470248    9.8131205519028057
   H   C
   4   1
Cartesian
  5.4342115522348031  4.0599823588662396  3.5285471744942627
  4.0218212425116171  4.8296212049528542  4.3411190260982355
  5.6666248890471760  5.6560854969864982  4.3517097932749191
  5.3832178122837115  4.1401893037796897  5.2734668610052271
  5.1096890240197617  4.6981102769122884  4.3605895430561930
