X
1.0
   4.0179999999999998    0.0000000000000000    0.0000000000000000
   0.0000000000000000    4.0179999999999998    0.0000000000000000
   0.0000000000000000    0.0000000000000000   12.4949999999999992
Al
12
cartesian
   2.0089999999999999    2.0089999999999999    9.2609999999999992 Al
   2.0089999999999999    2.0089999999999999    1.2250000000000001 Al
   0.0000000000000000    0.0000000000000000    1.2250000000000001 Al
   0.0000000000000000    2.0089999999999999    3.2340000000000000 Al
   0.0000000000000000    2.0089999999999999   11.2699999999999996 Al
   0.0000000000000000    0.0000000000000000    5.2429999999999994 Al
   2.0089999999999999    0.0000000000000000    3.2340000000000000 Al
   2.0089999999999999    0.0000000000000000   11.2699999999999996 Al
   0.0000000000000000    0.0000000000000000    9.2609999999999992 Al
   0.0000000000000000    2.0089999999999999    7.2519999999999998 Al
   2.0089999999999999    2.0089999999999999    5.2429999999999994 Al
   2.0089999999999999    0.0000000000000000    7.2519999999999998 Al
