PREC=A
ENCUT=600
ISYM=0
SYMPREC=1e-10
ALGO=fast
EDIFF=1E-4
LREAL=A
NPAR=4
KPAR=2

ISTART=0
ICHARG=2
ISIF=2
ISMEAR=-1
SIGMA=20.68159280932131
IBRION=0
MAXMIX=50
NBLOCK=1
KBLOCK=100

SMASS=0
POTIM=0.25
TEBEG=240000
TEEND=240000

NSW=8000

LWAVE=F
LCHARG=F
PSTRESS=0

KSPACING=0.64
KGAMMA=F

NBANDS=764

