 H  C 
 1.0000000000000000
    10.2695748165043099    0.0000000000000000    0.0000000000000000
    -0.2556599712165822    9.8828675165029782    0.0000000000000000
     0.1129903945195128   -0.1480189099251357    9.8096408504093695
   H   C
   4   1
Cartesian
  5.4496299873197120  3.9550744250541388  3.5270009200107597
  3.9603647891324929  4.7050135973575795  4.3392105487025638
  5.6214744401278933  5.5181896348372508  4.3425348329738824
  5.3847901568206140  4.0156612283514175  5.2643929053382568
  5.0882760640970979  4.5712113228041495  4.3600141220680477
