ATOMIC_SPECIES
Al 26.9815 ./pp_orb/Al_ONCV_PBE-1.0.upf

LATTICE_CONSTANT
1.88972612546

LATTICE_VECTORS
4.01993427025 7.2584598854e-31 7.13301566977e-30 #latvec1
7.2584598854e-31 4.01993427025 1.22599728095e-29 #latvec2
7.13301566977e-30 1.22599728095e-29 4.01993427025 #latvec3

ATOMIC_POSITIONS
Direct

Al #label
0 #magnetism
4 #number of atoms
0  0  0  m  1  1  1
0  0.5  0.5  m  1  1  1
0.5  0  0.5  m  1  1  1
0.5  0.5  0  m  1  1  1
