NPAR=1
KPAR=1

PREC=A
ENCUT=600
# ISYM=0

ISTART=0
ICHARG=2

ALGO=fast
LREAL=F
NELMIN=4

ISIF=2
# ISMEAR=1
# SIGMA=0.25

EDIFF=1E-6
# EDIFFG= -1E-2

IBRION=2
NSW=1000

LWAVE=F
LCHARG=F
PSTRESS=0

KSPACING=0.16
KGAMMA=F
