POSCAR file written by OVITO
1
9.9745894 0.0 0.0
0.0921136 10.0722494 0.0
0.0546212 0.1371946 10.2382259
H C 
4 1 
Cartesian
4.2921062 4.1563883 4.9737296
4.9639364 5.7846084 4.9871698
5.1609364 4.9435782 3.4815195
6.0176463 4.3013082 4.8220396
5.0721965 4.7546783 4.5532799
