ATOMIC_SPECIES
Cu 63.550 Cu_ONCV_PBE-1.0.upf
W 183.800 W_ONCV_PBE-1.0.upf

LATTICE_CONSTANT
1.8897261254578281

LATTICE_VECTORS
3.717356478254344 0.0 0.0 
-0.011725911810328732 3.708759632430939 0.0 
-0.010363514918635318 -0.032232272193964955 3.7511148265809564 

ATOMIC_POSITIONS
Cartesian    # Cartesian(Unit is LATTICE_CONSTANT)
Cu
0.0
2
0.000179139141 -0.000133301568 0.000458008248 1 1 1
-0.007104732591 1.850383519782 1.870247366201 1 1 1
W
0.0
2
1.858413480576 1.861755354679 0.016751752877 1 1 1
1.856744317200 -0.008966817328 1.862394311781 1 1 1
