Al1 
1.0
9.4351735339550946e-01 0.0000000000000000e+00 0.0000000000000000e+00 
6.0999656860152052e-01 1.7148923876854596e-02 0.0000000000000000e+00 
7.1637100648807928e-01 1.1870854711635171e-02 1.1964593611508943e-02 
Al 
1 
cartesian
   0.0000000000    0.0000000000    0.0000000000
