 H  C 
 1.0000000000000000
     9.7029725560397306    0.0000000000000000    0.0000000000000000
    -0.2784922850155852   10.0286217799841406    0.0000000000000000
     0.1119528243977824    0.0975582007680685   10.1364428836167662
   H   C
   4   1
Cartesian
  5.1272280497320866  4.0962056747241817  3.6497179988406820
  3.7240921518792347  4.8877151183702425  4.4893671404248758
  5.2940731142474791  5.7045286216761433  4.4930823260602057
  5.0758214513474753  4.2093177764901242  5.4444125390670166
  4.7902004620339351  4.7478763208344041  4.5004180951004624
