POSCAR file written by OVITO
1
9.9807348 0.0 0.0
-0.0646491 10.3855677 0.0
0.2844935 0.2649024 10.0714417
H C 
4 1 
Cartesian
5.8490982 4.6754956 3.7328794
4.1787381 4.5193653 4.0827599
5.0363584 6.0329952 4.6010494
5.3982782 4.6449256 5.5110398
5.1221881 4.9697652 4.4825392
