PREC=A
ENCUT=400.000000
# ISYM=0
ALGO=fast
EDIFF=1.000000e-06
LREAL=T
NPAR=1
KPAR=1

NELMIN=4
ISIF=2
ISMEAR=0
SIGMA=0.05
IBRION=2

NSW=1000

LWAVE=F
LCHARG=F
PSTRESS=0

KSPACING=2
KGAMMA=F
