POSCAR file written by OVITO
1
7.0842233 0.0 0.0
0.0804034 7.2489591 0.0
0.1706275 0.1898722 7.1030216
H C 
4 1 
Cartesian
4.7592616 3.1601195 3.0925314
3.1486616 3.0964894 2.3416615
3.5673318 4.5576697 3.1197116
3.2012715 3.0535498 4.1517916
3.6797018 3.4737096 3.1602914
