 H  C 
 1.0000000000000000
    10.2542813603509213    0.0000000000000000    0.0000000000000000
    -0.1943543670122937    9.8986744548855992    0.0000000000000000
    -0.2405521396860452   -0.2923842180623086    9.8000079439535011
   H   C
   4   1
Cartesian
  5.3357861062943206  3.9120626209954770  3.5263291593325694
  3.8278938444820749  4.6413704738779389  4.3356983630733303
  5.4890147883707776  5.4705024281260588  4.3420047561695130
  5.2146092867941549  3.9464732113205971  5.2587726450902688
  4.9510540627424389  4.5154516541024705  4.3477960418589170
