 H  C 
 1.0000000000000000
    10.0560944237411043    0.0000000000000000    0.0000000000000000
     0.2716085492269140   10.0149357822609222    0.0000000000000000
    -0.2531060564497193    0.1426962790338862   10.0361853443440356
   H   C
   4   1
Cartesian
  5.4149769131926124  4.1112815674545722  3.6103288724863116
  3.9614295009356164  4.8905923269671376  4.4355729942844579
  5.6371058537920158  5.7180408868975192  4.4470097486397382
  5.2983666785821022  4.2300722191917535  5.3841764542121204
  5.0631349817641684  4.7607583502030977  4.4587348215485836
