ATOMIC_SPECIES
Cu 63.550 Cu_ONCV_PBE-1.0.upf
W 183.800 W_ONCV_PBE-1.0.upf

LATTICE_CONSTANT
1.8897261254578281

LATTICE_VECTORS
3.6909315913612493 0.0 0.0 
-0.036967278398220164 3.7251383795484987 0.0 
-0.03008959292006834 -0.015875642269092976 3.7427143983075486 

ATOMIC_POSITIONS
Cartesian    # Cartesian(Unit is LATTICE_CONSTANT)
Cu
0.0
1
1.857264607106 0.013180057552 1.864540213905 1 1 1
W
0.0
3
1.852771017998 1.877760618690 0.005820806715 1 1 1
0.000371831912 0.004683791247 -0.008333141054 1 1 1
-0.013695105748 1.852144625112 1.862077750332 1 1 1
