POSCAR file written by OVITO
1
10.0092535 0.0 0.0
-0.266634 9.9130794 0.0
-0.2947973 0.2930737 10.2350826
H C 
4 1 
Cartesian
5.8234778 4.5229178 4.5647211
4.1530776 4.1039376 5.1466112
4.395978 4.6952076 3.4682012
4.6069279 5.7993374 4.8927914
4.7931381 4.7571078 4.5670514
