POSCAR file written by OVITO
1
7.7429629 0.0 0.0
-0.2166019 7.7820845 0.0
-0.1961497 -0.0819486 7.4903236
H C 
4 1 
Cartesian
3.3427642 4.5415802 2.9431168
4.2728939 3.0808506 2.5620168
2.8696144 2.9704504 3.6706867
4.4197645 3.8166204 4.2050266
3.7025645 3.5993705 3.3317065
