POSCAR file written by OVITO
1
25.6571255 0.0 0.0
0.3735438 25.8851014 0.0
0.3805894 0.1929731 25.9663182
H C 
4 1 
Cartesian
13.149271 11.8878556 10.4755202
12.2856712 12.0901356 12.0251198
13.6423702 13.2048454 11.6219902
14.0162106 11.6118155 12.1125298
13.260191 12.166626 11.5682402
