Al1 
1.0
6.7183926821441775e-01 0.0000000000000000e+00 0.0000000000000000e+00 
6.4140141985920385e-01 1.4352733214998581e-02 0.0000000000000000e+00 
9.8021519702240911e-01 3.8684916997537011e-03 1.7031593077790490e-02 
Al 
1 
cartesian
   0.0000000000    0.0000000000    0.0000000000
