POSCAR file written by OVITO
1
9.9605846 0.0 0.0
0.1829625 9.7601643 0.0
-0.2643532 0.073917 9.9510776
H C 
4 1 
Cartesian
6.0453715 4.8692084 4.4807868
4.6511917 5.2006583 3.5668867
4.4247818 4.9221688 5.3474469
4.6805415 3.5327986 4.2300468
4.9890914 4.5820585 4.437407
