POSCAR file written by OVITO            
   1.00000000000000     
    10.0000000000000000    0.0000000000000000    0.0000000000000000
     0.0000000000000000   10.0000000000000000    0.0000000000000000
     0.0000000000000000    0.0000000000000000   10.0000000000000000
   H    C 
     4     1
Direct
  0.5365862213690922  0.4054148864034588  0.3598478120063903
  0.3926107419717113  0.4826280037725887  0.4424481504667274
  0.5563601204384033  0.5650325668522299  0.4430642977903368
  0.5287288228876452  0.4143469060903319  0.5367025737920109
  0.5019364733331428  0.4688792168813951  0.4441027759445306
 
  0.00000000E+00  0.00000000E+00  0.00000000E+00
  0.00000000E+00  0.00000000E+00  0.00000000E+00
  0.00000000E+00  0.00000000E+00  0.00000000E+00
  0.00000000E+00  0.00000000E+00  0.00000000E+00
  0.00000000E+00  0.00000000E+00  0.00000000E+00
