Al1 
1.0
6.8488504358517499e-01 0.0000000000000000e+00 0.0000000000000000e+00 
6.4733602786911981e-01 1.8986412365836220e-02 0.0000000000000000e+00 
5.4847407769833134e-01 6.7603520231260773e-03 1.2632337835217923e-02 
Al 
1 
cartesian
   0.0000000000    0.0000000000    0.0000000000
