 H  C 
 1.0000000000000000
    10.0164313570366748    0.0000000000000000    0.0000000000000000
     0.0351960920769274   10.1394380839836415    0.0000000000000000
     0.0588559990778805    0.2243383277870065    9.9877475869754484
   H   C
   4   1
Cartesian
  5.4112636029745680  4.1928206561065480  3.5909474465953490
  3.9686175979754017  4.9954776985595322  4.4202586917251363
  5.6233695956355012  5.8326298088772619  4.4325991530294138
  5.3387614676907678  4.3180296492872889  5.3596722008240452
  5.0692368378962387  4.8582730942084043  4.4270121339112336
