 H  C 
 1.0000000000000000
     9.8289465144965842    0.0000000000000000    0.0000000000000000
    -0.2515553632583780   10.0342987471118015    0.0000000000000000
    -0.0199800464559843    0.2398997345284481    9.9588637298177982
   H   C
   4   1
Cartesian
  5.1659000860274267  4.1535315812188704  3.5828219813784616
  3.7259919066582508  4.9533592167813882  4.4032375826641266
  5.3216705583872201  5.7749616563154467  4.4134547051139066
  5.0810894170719187  4.2883558765720000  5.3489098754837121
  4.8067254609841497  4.8097335372325913  4.4214752665928438
