 H  C 
 1.0000000000000000
    10.2149593569026695    0.0000000000000000    0.0000000000000000
    -0.2738646614302994   10.2819931255627672    0.0000000000000000
     0.0852164097975572   -0.1571504922972083    9.8218318654142163
   H   C
   4   1
Cartesian
  5.3961645288425943  4.1165400768899589  3.5295035431076323
  3.9155614150901141  4.8939810306598579  4.3456317379390583
  5.5683008164617700  5.7404485736580746  4.3538466764700123
  5.3336576294070692  4.1688980582118260  5.2778852128046170
  5.0398654504192049  4.7551067302333871  4.3691573326673794
