Mo500 
1.0
1.3677680000000001e+01 0.0000000000000000e+00 0.0000000000000000e+00 
-4.5592269999999999e+00 1.2895441000000000e+01 0.0000000000000000e+00 
0.0000000000000000e+00 0.0000000000000000e+00 6.2437561000000002e+01 
Mo 
500 
Cartesian
   0.0000000000    0.0000000000   10.1281216449
   0.9118453000    1.2895441000   12.2310811370
   2.7355360000    0.0000000000   10.1281216449
   3.6473813000    1.2895441000   12.2310811370
   5.4710720000    0.0000000000   10.1281216449
   6.3829173000    1.2895441000   12.2310811370
   8.2066080000    0.0000000000   10.1281216449
   9.1184533000    1.2895441000   12.2310811370
  10.9421440000    0.0000000000   10.1281216449
  11.8539893000    1.2895441000   12.2310811370
  -0.9118454000    2.5790882000   10.1281216449
  -0.0000001000    3.8686323000   12.2310811370
   1.8236906000    2.5790882000   10.1281216449
   2.7355359000    3.8686323000   12.2310811370
   4.5592266000    2.5790882000   10.1281216449
   5.4710719000    3.8686323000   12.2310811370
   7.2947626000    2.5790882000   10.1281216449
   8.2066079000    3.8686323000   12.2310811370
  10.0302986000    2.5790882000   10.1281216449
  10.9421439000    3.8686323000   12.2310811370
  -1.8236908000    5.1581764000   10.1281216449
  -0.9118455000    6.4477205000   12.2310811370
   0.9118452000    5.1581764000   10.1281216449
   1.8236905000    6.4477205000   12.2310811370
   3.6473812000    5.1581764000   10.1281216449
   4.5592265000    6.4477205000   12.2310811370
   6.3829172000    5.1581764000   10.1281216449
   7.2947625000    6.4477205000   12.2310811370
   9.1184532000    5.1581764000   10.1281216449
  10.0302985000    6.4477205000   12.2310811370
  -2.7355362000    7.7372646000   10.1281216449
  -1.8236909000    9.0268087000   12.2310811370
  -0.0000002000    7.7372646000   10.1281216449
   0.9118451000    9.0268087000   12.2310811370
   2.7355358000    7.7372646000   10.1281216449
   3.6473811000    9.0268087000   12.2310811370
   5.4710718000    7.7372646000   10.1281216449
   6.3829171000    9.0268087000   12.2310811370
   8.2066078000    7.7372646000   10.1281216449
   9.1184531000    9.0268087000   12.2310811370
  -3.6473816000   10.3163528000   10.1281216449
  -2.7355363000   11.6058969000   12.2310811370
  -0.9118456000   10.3163528000   10.1281216449
  -0.0000003000   11.6058969000   12.2310811370
   1.8236904000   10.3163528000   10.1281216449
   2.7355357000   11.6058969000   12.2310811370
   4.5592264000   10.3163528000   10.1281216449
   5.4710717000   11.6058969000   12.2310811370
   7.2947624000   10.3163528000   10.1281216449
   8.2066077000   11.6058969000   12.2310811370
   0.0000000000    0.0000000000   14.4649097569
   0.9118453000    1.2895441000   16.6924946207
   2.7355360000    0.0000000000   14.4649097569
   3.6473813000    1.2895441000   16.6924946207
   5.4710720000    0.0000000000   14.4649097569
   6.3829173000    1.2895441000   16.6924946207
   8.2066080000    0.0000000000   14.4649097569
   9.1184533000    1.2895441000   16.6924946207
  10.9421440000    0.0000000000   14.4649097569
  11.8539893000    1.2895441000   16.6924946207
  -0.9118454000    2.5790882000   14.4649097569
  -0.0000001000    3.8686323000   16.6924946207
   1.8236906000    2.5790882000   14.4649097569
   2.7355359000    3.8686323000   16.6924946207
   4.5592266000    2.5790882000   14.4649097569
   5.4710719000    3.8686323000   16.6924946207
   7.2947626000    2.5790882000   14.4649097569
   8.2066079000    3.8686323000   16.6924946207
  10.0302986000    2.5790882000   14.4649097569
  10.9421439000    3.8686323000   16.6924946207
  -1.8236908000    5.1581764000   14.4649097569
  -0.9118455000    6.4477205000   16.6924946207
   0.9118452000    5.1581764000   14.4649097569
   1.8236905000    6.4477205000   16.6924946207
   3.6473812000    5.1581764000   14.4649097569
   4.5592265000    6.4477205000   16.6924946207
   6.3829172000    5.1581764000   14.4649097569
   7.2947625000    6.4477205000   16.6924946207
   9.1184532000    5.1581764000   14.4649097569
  10.0302985000    6.4477205000   16.6924946207
  -2.7355362000    7.7372646000   14.4649097569
  -1.8236909000    9.0268087000   16.6924946207
  -0.0000002000    7.7372646000   14.4649097569
   0.9118451000    9.0268087000   16.6924946207
   2.7355358000    7.7372646000   14.4649097569
   3.6473811000    9.0268087000   16.6924946207
   5.4710718000    7.7372646000   14.4649097569
   6.3829171000    9.0268087000   16.6924946207
   8.2066078000    7.7372646000   14.4649097569
   9.1184531000    9.0268087000   16.6924946207
  -3.6473816000   10.3163528000   14.4649097569
  -2.7355363000   11.6058969000   16.6924946207
  -0.9118456000   10.3163528000   14.4649097569
  -0.0000003000   11.6058969000   16.6924946207
   1.8236904000   10.3163528000   14.4649097569
   2.7355357000   11.6058969000   16.6924946207
   4.5592264000   10.3163528000   14.4649097569
   5.4710717000   11.6058969000   16.6924946207
   7.2947624000   10.3163528000   14.4649097569
   8.2066077000   11.6058969000   16.6924946207
   0.0000000000    0.0000000000   18.9242628011
   0.9118453000    1.2895441000   21.1574046078
   2.7355360000    0.0000000000   18.9242628011
   3.6473813000    1.2895441000   21.1574046078
   5.4710720000    0.0000000000   18.9242628011
   6.3829173000    1.2895441000   21.1574046078
   8.2066080000    0.0000000000   18.9242628011
   9.1184533000    1.2895441000   21.1574046078
  10.9421440000    0.0000000000   18.9242628011
  11.8539893000    1.2895441000   21.1574046078
  -0.9118454000    2.5790882000   18.9242628011
  -0.0000001000    3.8686323000   21.1574046078
   1.8236906000    2.5790882000   18.9242628011
   2.7355359000    3.8686323000   21.1574046078
   4.5592266000    2.5790882000   18.9242628011
   5.4710719000    3.8686323000   21.1574046078
   7.2947626000    2.5790882000   18.9242628011
   8.2066079000    3.8686323000   21.1574046078
  10.0302986000    2.5790882000   18.9242628011
  10.9421439000    3.8686323000   21.1574046078
  -1.8236908000    5.1581764000   18.9242628011
  -0.9118455000    6.4477205000   21.1574046078
   0.9118452000    5.1581764000   18.9242628011
   1.8236905000    6.4477205000   21.1574046078
   3.6473812000    5.1581764000   18.9242628011
   4.5592265000    6.4477205000   21.1574046078
   6.3829172000    5.1581764000   18.9242628011
   7.2947625000    6.4477205000   21.1574046078
   9.1184532000    5.1581764000   18.9242628011
  10.0302985000    6.4477205000   21.1574046078
  -2.7355362000    7.7372646000   18.9242628011
  -1.8236909000    9.0268087000   21.1574046078
  -0.0000002000    7.7372646000   18.9242628011
   0.9118451000    9.0268087000   21.1574046078
   2.7355358000    7.7372646000   18.9242628011
   3.6473811000    9.0268087000   21.1574046078
   5.4710718000    7.7372646000   18.9242628011
   6.3829171000    9.0268087000   21.1574046078
   8.2066078000    7.7372646000   18.9242628011
   9.1184531000    9.0268087000   21.1574046078
  -3.6473816000   10.3163528000   18.9242628011
  -2.7355363000   11.6058969000   21.1574046078
  -0.9118456000   10.3163528000   18.9242628011
  -0.0000003000   11.6058969000   21.1574046078
   1.8236904000   10.3163528000   18.9242628011
   2.7355357000   11.6058969000   21.1574046078
   4.5592264000   10.3163528000   18.9242628011
   5.4710717000   11.6058969000   21.1574046078
   7.2947624000   10.3163528000   18.9242628011
   8.2066077000   11.6058969000   21.1574046078
   0.0000000000    0.0000000000   23.3910459150
   0.9118453000    1.2895441000   25.6248745349
   2.7355360000    0.0000000000   23.3910459150
   3.6473813000    1.2895441000   25.6248745349
   5.4710720000    0.0000000000   23.3910459150
   6.3829173000    1.2895441000   25.6248745349
   8.2066080000    0.0000000000   23.3910459150
   9.1184533000    1.2895441000   25.6248745349
  10.9421440000    0.0000000000   23.3910459150
  11.8539893000    1.2895441000   25.6248745349
  -0.9118454000    2.5790882000   23.3910459150
  -0.0000001000    3.8686323000   25.6248745349
   1.8236906000    2.5790882000   23.3910459150
   2.7355359000    3.8686323000   25.6248745349
   4.5592266000    2.5790882000   23.3910459150
   5.4710719000    3.8686323000   25.6248745349
   7.2947626000    2.5790882000   23.3910459150
   8.2066079000    3.8686323000   25.6248745349
  10.0302986000    2.5790882000   23.3910459150
  10.9421439000    3.8686323000   25.6248745349
  -1.8236908000    5.1581764000   23.3910459150
  -0.9118455000    6.4477205000   25.6248745349
   0.9118452000    5.1581764000   23.3910459150
   1.8236905000    6.4477205000   25.6248745349
   3.6473812000    5.1581764000   23.3910459150
   4.5592265000    6.4477205000   25.6248745349
   6.3829172000    5.1581764000   23.3910459150
   7.2947625000    6.4477205000   25.6248745349
   9.1184532000    5.1581764000   23.3910459150
  10.0302985000    6.4477205000   25.6248745349
  -2.7355362000    7.7372646000   23.3910459150
  -1.8236909000    9.0268087000   25.6248745349
  -0.0000002000    7.7372646000   23.3910459150
   0.9118451000    9.0268087000   25.6248745349
   2.7355358000    7.7372646000   23.3910459150
   3.6473811000    9.0268087000   25.6248745349
   5.4710718000    7.7372646000   23.3910459150
   6.3829171000    9.0268087000   25.6248745349
   8.2066078000    7.7372646000   23.3910459150
   9.1184531000    9.0268087000   25.6248745349
  -3.6473816000   10.3163528000   23.3910459150
  -2.7355363000   11.6058969000   25.6248745349
  -0.9118456000   10.3163528000   23.3910459150
  -0.0000003000   11.6058969000   25.6248745349
   1.8236904000   10.3163528000   23.3910459150
   2.7355357000   11.6058969000   25.6248745349
   4.5592264000   10.3163528000   23.3910459150
   5.4710717000   11.6058969000   25.6248745349
   7.2947624000   10.3163528000   23.3910459150
   8.2066077000   11.6058969000   25.6248745349
   0.0000000000    0.0000000000   27.8553315265
   0.9118453000    1.2895441000   30.0851017049
   2.7355360000    0.0000000000   27.8553315265
   3.6473813000    1.2895441000   30.0851017049
   5.4710720000    0.0000000000   27.8553315265
   6.3829173000    1.2895441000   30.0851017049
   8.2066080000    0.0000000000   27.8553315265
   9.1184533000    1.2895441000   30.0851017049
  10.9421440000    0.0000000000   27.8553315265
  11.8539893000    1.2895441000   30.0851017049
  -0.9118454000    2.5790882000   27.8553315265
  -0.0000001000    3.8686323000   30.0851017049
   1.8236906000    2.5790882000   27.8553315265
   2.7355359000    3.8686323000   30.0851017049
   4.5592266000    2.5790882000   27.8553315265
   5.4710719000    3.8686323000   30.0851017049
   7.2947626000    2.5790882000   27.8553315265
   8.2066079000    3.8686323000   30.0851017049
  10.0302986000    2.5790882000   27.8553315265
  10.9421439000    3.8686323000   30.0851017049
  -1.8236908000    5.1581764000   27.8553315265
  -0.9118455000    6.4477205000   30.0851017049
   0.9118452000    5.1581764000   27.8553315265
   1.8236905000    6.4477205000   30.0851017049
   3.6473812000    5.1581764000   27.8553315265
   4.5592265000    6.4477205000   30.0851017049
   6.3829172000    5.1581764000   27.8553315265
   7.2947625000    6.4477205000   30.0851017049
   9.1184532000    5.1581764000   27.8553315265
  10.0302985000    6.4477205000   30.0851017049
  -2.7355362000    7.7372646000   27.8553315265
  -1.8236909000    9.0268087000   30.0851017049
  -0.0000002000    7.7372646000   27.8553315265
   0.9118451000    9.0268087000   30.0851017049
   2.7355358000    7.7372646000   27.8553315265
   3.6473811000    9.0268087000   30.0851017049
   5.4710718000    7.7372646000   27.8553315265
   6.3829171000    9.0268087000   30.0851017049
   8.2066078000    7.7372646000   27.8553315265
   9.1184531000    9.0268087000   30.0851017049
  -3.6473816000   10.3163528000   27.8553315265
  -2.7355363000   11.6058969000   30.0851017049
  -0.9118456000   10.3163528000   27.8553315265
  -0.0000003000   11.6058969000   30.0851017049
   1.8236904000   10.3163528000   27.8553315265
   2.7355357000   11.6058969000   30.0851017049
   4.5592264000   10.3163528000   27.8553315265
   5.4710717000   11.6058969000   30.0851017049
   7.2947624000   10.3163528000   27.8553315265
   8.2066077000   11.6058969000   30.0851017049
   0.2735536000    0.0000000000   32.3524592951
   1.1853989000    1.2895441000   34.5822294735
   3.0090896000    0.0000000000   32.3524592951
   3.9209349000    1.2895441000   34.5822294735
   5.7446256000    0.0000000000   32.3524592951
   6.6564709000    1.2895441000   34.5822294735
   8.4801616000    0.0000000000   32.3524592951
   9.3920069000    1.2895441000   34.5822294735
  11.2156976000    0.0000000000   32.3524592951
  12.1275429000    1.2895441000   34.5822294735
  -0.6382918000    2.5790882000   32.3524592951
   0.2735535000    3.8686323000   34.5822294735
   2.0972442000    2.5790882000   32.3524592951
   3.0090895000    3.8686323000   34.5822294735
   4.8327802000    2.5790882000   32.3524592951
   5.7446255000    3.8686323000   34.5822294735
   7.5683162000    2.5790882000   32.3524592951
   8.4801615000    3.8686323000   34.5822294735
  10.3038522000    2.5790882000   32.3524592951
  11.2156975000    3.8686323000   34.5822294735
  -1.5501372000    5.1581764000   32.3524592951
  -0.6382919000    6.4477205000   34.5822294735
   1.1853988000    5.1581764000   32.3524592951
   2.0972441000    6.4477205000   34.5822294735
   3.9209348000    5.1581764000   32.3524592951
   4.8327801000    6.4477205000   34.5822294735
   6.6564708000    5.1581764000   32.3524592951
   7.5683161000    6.4477205000   34.5822294735
   9.3920068000    5.1581764000   32.3524592951
  10.3038521000    6.4477205000   34.5822294735
  -2.4619826000    7.7372646000   32.3524592951
  -1.5501373000    9.0268087000   34.5822294735
   0.2735534000    7.7372646000   32.3524592951
   1.1853987000    9.0268087000   34.5822294735
   3.0090894000    7.7372646000   32.3524592951
   3.9209347000    9.0268087000   34.5822294735
   5.7446254000    7.7372646000   32.3524592951
   6.6564707000    9.0268087000   34.5822294735
   8.4801614000    7.7372646000   32.3524592951
   9.3920067000    9.0268087000   34.5822294735
  -3.3738280000   10.3163528000   32.3524592951
  -2.4619827000   11.6058969000   34.5822294735
  -0.6382920000   10.3163528000   32.3524592951
   0.2735533000   11.6058969000   34.5822294735
   2.0972440000   10.3163528000   32.3524592951
   3.0090893000   11.6058969000   34.5822294735
   4.8327800000   10.3163528000   32.3524592951
   5.7446253000   11.6058969000   34.5822294735
   7.5683160000   10.3163528000   32.3524592951
   8.4801613000   11.6058969000   34.5822294735
   0.2735536000    0.0000000000   36.8126864651
   1.1853989000    1.2895441000   39.0465150850
   3.0090896000    0.0000000000   36.8126864651
   3.9209349000    1.2895441000   39.0465150850
   5.7446256000    0.0000000000   36.8126864651
   6.6564709000    1.2895441000   39.0465150850
   8.4801616000    0.0000000000   36.8126864651
   9.3920069000    1.2895441000   39.0465150850
  11.2156976000    0.0000000000   36.8126864651
  12.1275429000    1.2895441000   39.0465150850
  -0.6382918000    2.5790882000   36.8126864651
   0.2735535000    3.8686323000   39.0465150850
   2.0972442000    2.5790882000   36.8126864651
   3.0090895000    3.8686323000   39.0465150850
   4.8327802000    2.5790882000   36.8126864651
   5.7446255000    3.8686323000   39.0465150850
   7.5683162000    2.5790882000   36.8126864651
   8.4801615000    3.8686323000   39.0465150850
  10.3038522000    2.5790882000   36.8126864651
  11.2156975000    3.8686323000   39.0465150850
  -1.5501372000    5.1581764000   36.8126864651
  -0.6382919000    6.4477205000   39.0465150850
   1.1853988000    5.1581764000   36.8126864651
   2.0972441000    6.4477205000   39.0465150850
   3.9209348000    5.1581764000   36.8126864651
   4.8327801000    6.4477205000   39.0465150850
   6.6564708000    5.1581764000   36.8126864651
   7.5683161000    6.4477205000   39.0465150850
   9.3920068000    5.1581764000   36.8126864651
  10.3038521000    6.4477205000   39.0465150850
  -2.4619826000    7.7372646000   36.8126864651
  -1.5501373000    9.0268087000   39.0465150850
   0.2735534000    7.7372646000   36.8126864651
   1.1853987000    9.0268087000   39.0465150850
   3.0090894000    7.7372646000   36.8126864651
   3.9209347000    9.0268087000   39.0465150850
   5.7446254000    7.7372646000   36.8126864651
   6.6564707000    9.0268087000   39.0465150850
   8.4801614000    7.7372646000   36.8126864651
   9.3920067000    9.0268087000   39.0465150850
  -3.3738280000   10.3163528000   36.8126864651
  -2.4619827000   11.6058969000   39.0465150850
  -0.6382920000   10.3163528000   36.8126864651
   0.2735533000   11.6058969000   39.0465150850
   2.0972440000   10.3163528000   36.8126864651
   3.0090893000   11.6058969000   39.0465150850
   4.8327800000   10.3163528000   36.8126864651
   5.7446253000   11.6058969000   39.0465150850
   7.5683160000   10.3163528000   36.8126864651
   8.4801613000   11.6058969000   39.0465150850
   0.2735536000    0.0000000000   41.2801563922
   1.1853989000    1.2895441000   43.5132981989
   3.0090896000    0.0000000000   41.2801563922
   3.9209349000    1.2895441000   43.5132981989
   5.7446256000    0.0000000000   41.2801563922
   6.6564709000    1.2895441000   43.5132981989
   8.4801616000    0.0000000000   41.2801563922
   9.3920069000    1.2895441000   43.5132981989
  11.2156976000    0.0000000000   41.2801563922
  12.1275429000    1.2895441000   43.5132981989
  -0.6382918000    2.5790882000   41.2801563922
   0.2735535000    3.8686323000   43.5132981989
   2.0972442000    2.5790882000   41.2801563922
   3.0090895000    3.8686323000   43.5132981989
   4.8327802000    2.5790882000   41.2801563922
   5.7446255000    3.8686323000   43.5132981989
   7.5683162000    2.5790882000   41.2801563922
   8.4801615000    3.8686323000   43.5132981989
  10.3038522000    2.5790882000   41.2801563922
  11.2156975000    3.8686323000   43.5132981989
  -1.5501372000    5.1581764000   41.2801563922
  -0.6382919000    6.4477205000   43.5132981989
   1.1853988000    5.1581764000   41.2801563922
   2.0972441000    6.4477205000   43.5132981989
   3.9209348000    5.1581764000   41.2801563922
   4.8327801000    6.4477205000   43.5132981989
   6.6564708000    5.1581764000   41.2801563922
   7.5683161000    6.4477205000   43.5132981989
   9.3920068000    5.1581764000   41.2801563922
  10.3038521000    6.4477205000   43.5132981989
  -2.4619826000    7.7372646000   41.2801563922
  -1.5501373000    9.0268087000   43.5132981989
   0.2735534000    7.7372646000   41.2801563922
   1.1853987000    9.0268087000   43.5132981989
   3.0090894000    7.7372646000   41.2801563922
   3.9209347000    9.0268087000   43.5132981989
   5.7446254000    7.7372646000   41.2801563922
   6.6564707000    9.0268087000   43.5132981989
   8.4801614000    7.7372646000   41.2801563922
   9.3920067000    9.0268087000   43.5132981989
  -3.3738280000   10.3163528000   41.2801563922
  -2.4619827000   11.6058969000   43.5132981989
  -0.6382920000   10.3163528000   41.2801563922
   0.2735533000   11.6058969000   43.5132981989
   2.0972440000   10.3163528000   41.2801563922
   3.0090893000   11.6058969000   43.5132981989
   4.8327800000   10.3163528000   41.2801563922
   5.7446253000   11.6058969000   43.5132981989
   7.5683160000   10.3163528000   41.2801563922
   8.4801613000   11.6058969000   43.5132981989
   0.2735536000    0.0000000000   45.7450663793
   1.1853989000    1.2895441000   47.9726512431
   3.0090896000    0.0000000000   45.7450663793
   3.9209349000    1.2895441000   47.9726512431
   5.7446256000    0.0000000000   45.7450663793
   6.6564709000    1.2895441000   47.9726512431
   8.4801616000    0.0000000000   45.7450663793
   9.3920069000    1.2895441000   47.9726512431
  11.2156976000    0.0000000000   45.7450663793
  12.1275429000    1.2895441000   47.9726512431
  -0.6382918000    2.5790882000   45.7450663793
   0.2735535000    3.8686323000   47.9726512431
   2.0972442000    2.5790882000   45.7450663793
   3.0090895000    3.8686323000   47.9726512431
   4.8327802000    2.5790882000   45.7450663793
   5.7446255000    3.8686323000   47.9726512431
   7.5683162000    2.5790882000   45.7450663793
   8.4801615000    3.8686323000   47.9726512431
  10.3038522000    2.5790882000   45.7450663793
  11.2156975000    3.8686323000   47.9726512431
  -1.5501372000    5.1581764000   45.7450663793
  -0.6382919000    6.4477205000   47.9726512431
   1.1853988000    5.1581764000   45.7450663793
   2.0972441000    6.4477205000   47.9726512431
   3.9209348000    5.1581764000   45.7450663793
   4.8327801000    6.4477205000   47.9726512431
   6.6564708000    5.1581764000   45.7450663793
   7.5683161000    6.4477205000   47.9726512431
   9.3920068000    5.1581764000   45.7450663793
  10.3038521000    6.4477205000   47.9726512431
  -2.4619826000    7.7372646000   45.7450663793
  -1.5501373000    9.0268087000   47.9726512431
   0.2735534000    7.7372646000   45.7450663793
   1.1853987000    9.0268087000   47.9726512431
   3.0090894000    7.7372646000   45.7450663793
   3.9209347000    9.0268087000   47.9726512431
   5.7446254000    7.7372646000   45.7450663793
   6.6564707000    9.0268087000   47.9726512431
   8.4801614000    7.7372646000   45.7450663793
   9.3920067000    9.0268087000   47.9726512431
  -3.3738280000   10.3163528000   45.7450663793
  -2.4619827000   11.6058969000   47.9726512431
  -0.6382920000   10.3163528000   45.7450663793
   0.2735533000   11.6058969000   47.9726512431
   2.0972440000   10.3163528000   45.7450663793
   3.0090893000   11.6058969000   47.9726512431
   4.8327800000   10.3163528000   45.7450663793
   5.7446253000   11.6058969000   47.9726512431
   7.5683160000   10.3163528000   45.7450663793
   8.4801613000   11.6058969000   47.9726512431
   0.2735536000    0.0000000000   50.2064798630
   1.1853989000    1.2895441000   52.3094393551
   3.0090896000    0.0000000000   50.2064798630
   3.9209349000    1.2895441000   52.3094393551
   5.7446256000    0.0000000000   50.2064798630
   6.6564709000    1.2895441000   52.3094393551
   8.4801616000    0.0000000000   50.2064798630
   9.3920069000    1.2895441000   52.3094393551
  11.2156976000    0.0000000000   50.2064798630
  12.1275429000    1.2895441000   52.3094393551
  -0.6382918000    2.5790882000   50.2064798630
   0.2735535000    3.8686323000   52.3094393551
   2.0972442000    2.5790882000   50.2064798630
   3.0090895000    3.8686323000   52.3094393551
   4.8327802000    2.5790882000   50.2064798630
   5.7446255000    3.8686323000   52.3094393551
   7.5683162000    2.5790882000   50.2064798630
   8.4801615000    3.8686323000   52.3094393551
  10.3038522000    2.5790882000   50.2064798630
  11.2156975000    3.8686323000   52.3094393551
  -1.5501372000    5.1581764000   50.2064798630
  -0.6382919000    6.4477205000   52.3094393551
   1.1853988000    5.1581764000   50.2064798630
   2.0972441000    6.4477205000   52.3094393551
   3.9209348000    5.1581764000   50.2064798630
   4.8327801000    6.4477205000   52.3094393551
   6.6564708000    5.1581764000   50.2064798630
   7.5683161000    6.4477205000   52.3094393551
   9.3920068000    5.1581764000   50.2064798630
  10.3038521000    6.4477205000   52.3094393551
  -2.4619826000    7.7372646000   50.2064798630
  -1.5501373000    9.0268087000   52.3094393551
   0.2735534000    7.7372646000   50.2064798630
   1.1853987000    9.0268087000   52.3094393551
   3.0090894000    7.7372646000   50.2064798630
   3.9209347000    9.0268087000   52.3094393551
   5.7446254000    7.7372646000   50.2064798630
   6.6564707000    9.0268087000   52.3094393551
   8.4801614000    7.7372646000   50.2064798630
   9.3920067000    9.0268087000   52.3094393551
  -3.3738280000   10.3163528000   50.2064798630
  -2.4619827000   11.6058969000   52.3094393551
  -0.6382920000   10.3163528000   50.2064798630
   0.2735533000   11.6058969000   52.3094393551
   2.0972440000   10.3163528000   50.2064798630
   3.0090893000   11.6058969000   52.3094393551
   4.8327800000   10.3163528000   50.2064798630
   5.7446253000   11.6058969000   52.3094393551
   7.5683160000   10.3163528000   50.2064798630
   8.4801613000   11.6058969000   52.3094393551
