Mo500 
1.0
1.3677680000000001e+01 0.0000000000000000e+00 0.0000000000000000e+00 
-4.5592269999999999e+00 1.2895441000000000e+01 0.0000000000000000e+00 
0.0000000000000000e+00 0.0000000000000000e+00 6.2437561000000002e+01 
Mo 
500 
Cartesian
   0.0000000000    0.0000000000   10.1387360303
   0.9118453000    1.2895441000   12.2416955223
   2.7355360000    0.0000000000   10.1387360303
   3.6473813000    1.2895441000   12.2416955223
   5.4710720000    0.0000000000   10.1387360303
   6.3829173000    1.2895441000   12.2416955223
   8.2066080000    0.0000000000   10.1387360303
   9.1184533000    1.2895441000   12.2416955223
  10.9421440000    0.0000000000   10.1387360303
  11.8539893000    1.2895441000   12.2416955223
  -0.9118454000    2.5790882000   10.1387360303
  -0.0000001000    3.8686323000   12.2416955223
   1.8236906000    2.5790882000   10.1387360303
   2.7355359000    3.8686323000   12.2416955223
   4.5592266000    2.5790882000   10.1387360303
   5.4710719000    3.8686323000   12.2416955223
   7.2947626000    2.5790882000   10.1387360303
   8.2066079000    3.8686323000   12.2416955223
  10.0302986000    2.5790882000   10.1387360303
  10.9421439000    3.8686323000   12.2416955223
  -1.8236908000    5.1581764000   10.1387360303
  -0.9118455000    6.4477205000   12.2416955223
   0.9118452000    5.1581764000   10.1387360303
   1.8236905000    6.4477205000   12.2416955223
   3.6473812000    5.1581764000   10.1387360303
   4.5592265000    6.4477205000   12.2416955223
   6.3829172000    5.1581764000   10.1387360303
   7.2947625000    6.4477205000   12.2416955223
   9.1184532000    5.1581764000   10.1387360303
  10.0302985000    6.4477205000   12.2416955223
  -2.7355362000    7.7372646000   10.1387360303
  -1.8236909000    9.0268087000   12.2416955223
  -0.0000002000    7.7372646000   10.1387360303
   0.9118451000    9.0268087000   12.2416955223
   2.7355358000    7.7372646000   10.1387360303
   3.6473811000    9.0268087000   12.2416955223
   5.4710718000    7.7372646000   10.1387360303
   6.3829171000    9.0268087000   12.2416955223
   8.2066078000    7.7372646000   10.1387360303
   9.1184531000    9.0268087000   12.2416955223
  -3.6473816000   10.3163528000   10.1387360303
  -2.7355363000   11.6058969000   12.2416955223
  -0.9118456000   10.3163528000   10.1387360303
  -0.0000003000   11.6058969000   12.2416955223
   1.8236904000   10.3163528000   10.1387360303
   2.7355357000   11.6058969000   12.2416955223
   4.5592264000   10.3163528000   10.1387360303
   5.4710717000   11.6058969000   12.2416955223
   7.2947624000   10.3163528000   10.1387360303
   8.2066077000   11.6058969000   12.2416955223
   0.0000000000    0.0000000000   14.4755241422
   0.9118453000    1.2895441000   16.7031090060
   2.7355360000    0.0000000000   14.4755241422
   3.6473813000    1.2895441000   16.7031090060
   5.4710720000    0.0000000000   14.4755241422
   6.3829173000    1.2895441000   16.7031090060
   8.2066080000    0.0000000000   14.4755241422
   9.1184533000    1.2895441000   16.7031090060
  10.9421440000    0.0000000000   14.4755241422
  11.8539893000    1.2895441000   16.7031090060
  -0.9118454000    2.5790882000   14.4755241422
  -0.0000001000    3.8686323000   16.7031090060
   1.8236906000    2.5790882000   14.4755241422
   2.7355359000    3.8686323000   16.7031090060
   4.5592266000    2.5790882000   14.4755241422
   5.4710719000    3.8686323000   16.7031090060
   7.2947626000    2.5790882000   14.4755241422
   8.2066079000    3.8686323000   16.7031090060
  10.0302986000    2.5790882000   14.4755241422
  10.9421439000    3.8686323000   16.7031090060
  -1.8236908000    5.1581764000   14.4755241422
  -0.9118455000    6.4477205000   16.7031090060
   0.9118452000    5.1581764000   14.4755241422
   1.8236905000    6.4477205000   16.7031090060
   3.6473812000    5.1581764000   14.4755241422
   4.5592265000    6.4477205000   16.7031090060
   6.3829172000    5.1581764000   14.4755241422
   7.2947625000    6.4477205000   16.7031090060
   9.1184532000    5.1581764000   14.4755241422
  10.0302985000    6.4477205000   16.7031090060
  -2.7355362000    7.7372646000   14.4755241422
  -1.8236909000    9.0268087000   16.7031090060
  -0.0000002000    7.7372646000   14.4755241422
   0.9118451000    9.0268087000   16.7031090060
   2.7355358000    7.7372646000   14.4755241422
   3.6473811000    9.0268087000   16.7031090060
   5.4710718000    7.7372646000   14.4755241422
   6.3829171000    9.0268087000   16.7031090060
   8.2066078000    7.7372646000   14.4755241422
   9.1184531000    9.0268087000   16.7031090060
  -3.6473816000   10.3163528000   14.4755241422
  -2.7355363000   11.6058969000   16.7031090060
  -0.9118456000   10.3163528000   14.4755241422
  -0.0000003000   11.6058969000   16.7031090060
   1.8236904000   10.3163528000   14.4755241422
   2.7355357000   11.6058969000   16.7031090060
   4.5592264000   10.3163528000   14.4755241422
   5.4710717000   11.6058969000   16.7031090060
   7.2947624000   10.3163528000   14.4755241422
   8.2066077000   11.6058969000   16.7031090060
   0.0000000000    0.0000000000   18.9348771864
   0.9118453000    1.2895441000   21.1681438683
   2.7355360000    0.0000000000   18.9348771864
   3.6473813000    1.2895441000   21.1681438683
   5.4710720000    0.0000000000   18.9348771864
   6.3829173000    1.2895441000   21.1681438683
   8.2066080000    0.0000000000   18.9348771864
   9.1184533000    1.2895441000   21.1681438683
  10.9421440000    0.0000000000   18.9348771864
  11.8539893000    1.2895441000   21.1681438683
  -0.9118454000    2.5790882000   18.9348771864
  -0.0000001000    3.8686323000   21.1681438683
   1.8236906000    2.5790882000   18.9348771864
   2.7355359000    3.8686323000   21.1681438683
   4.5592266000    2.5790882000   18.9348771864
   5.4710719000    3.8686323000   21.1681438683
   7.2947626000    2.5790882000   18.9348771864
   8.2066079000    3.8686323000   21.1681438683
  10.0302986000    2.5790882000   18.9348771864
  10.9421439000    3.8686323000   21.1681438683
  -1.8236908000    5.1581764000   18.9348771864
  -0.9118455000    6.4477205000   21.1681438683
   0.9118452000    5.1581764000   18.9348771864
   1.8236905000    6.4477205000   21.1681438683
   3.6473812000    5.1581764000   18.9348771864
   4.5592265000    6.4477205000   21.1681438683
   6.3829172000    5.1581764000   18.9348771864
   7.2947625000    6.4477205000   21.1681438683
   9.1184532000    5.1581764000   18.9348771864
  10.0302985000    6.4477205000   21.1681438683
  -2.7355362000    7.7372646000   18.9348771864
  -1.8236909000    9.0268087000   21.1681438683
  -0.0000002000    7.7372646000   18.9348771864
   0.9118451000    9.0268087000   21.1681438683
   2.7355358000    7.7372646000   18.9348771864
   3.6473811000    9.0268087000   21.1681438683
   5.4710718000    7.7372646000   18.9348771864
   6.3829171000    9.0268087000   21.1681438683
   8.2066078000    7.7372646000   18.9348771864
   9.1184531000    9.0268087000   21.1681438683
  -3.6473816000   10.3163528000   18.9348771864
  -2.7355363000   11.6058969000   21.1681438683
  -0.9118456000   10.3163528000   18.9348771864
  -0.0000003000   11.6058969000   21.1681438683
   1.8236904000   10.3163528000   18.9348771864
   2.7355357000   11.6058969000   21.1681438683
   4.5592264000   10.3163528000   18.9348771864
   5.4710717000   11.6058969000   21.1681438683
   7.2947624000   10.3163528000   18.9348771864
   8.2066077000   11.6058969000   21.1681438683
   0.0000000000    0.0000000000   23.4014105501
   0.9118453000    1.2895441000   25.6349269822
   2.7355360000    0.0000000000   23.4014105501
   3.6473813000    1.2895441000   25.6349269822
   5.4710720000    0.0000000000   23.4014105501
   6.3829173000    1.2895441000   25.6349269822
   8.2066080000    0.0000000000   23.4014105501
   9.1184533000    1.2895441000   25.6349269822
  10.9421440000    0.0000000000   23.4014105501
  11.8539893000    1.2895441000   25.6349269822
  -0.9118454000    2.5790882000   23.4014105501
  -0.0000001000    3.8686323000   25.6349269822
   1.8236906000    2.5790882000   23.4014105501
   2.7355359000    3.8686323000   25.6349269822
   4.5592266000    2.5790882000   23.4014105501
   5.4710719000    3.8686323000   25.6349269822
   7.2947626000    2.5790882000   23.4014105501
   8.2066079000    3.8686323000   25.6349269822
  10.0302986000    2.5790882000   23.4014105501
  10.9421439000    3.8686323000   25.6349269822
  -1.8236908000    5.1581764000   23.4014105501
  -0.9118455000    6.4477205000   25.6349269822
   0.9118452000    5.1581764000   23.4014105501
   1.8236905000    6.4477205000   25.6349269822
   3.6473812000    5.1581764000   23.4014105501
   4.5592265000    6.4477205000   25.6349269822
   6.3829172000    5.1581764000   23.4014105501
   7.2947625000    6.4477205000   25.6349269822
   9.1184532000    5.1581764000   23.4014105501
  10.0302985000    6.4477205000   25.6349269822
  -2.7355362000    7.7372646000   23.4014105501
  -1.8236909000    9.0268087000   25.6349269822
  -0.0000002000    7.7372646000   23.4014105501
   0.9118451000    9.0268087000   25.6349269822
   2.7355358000    7.7372646000   23.4014105501
   3.6473811000    9.0268087000   25.6349269822
   5.4710718000    7.7372646000   23.4014105501
   6.3829171000    9.0268087000   25.6349269822
   8.2066078000    7.7372646000   23.4014105501
   9.1184531000    9.0268087000   25.6349269822
  -3.6473816000   10.3163528000   23.4014105501
  -2.7355363000   11.6058969000   25.6349269822
  -0.9118456000   10.3163528000   23.4014105501
  -0.0000003000   11.6058969000   25.6349269822
   1.8236904000   10.3163528000   23.4014105501
   2.7355357000   11.6058969000   25.6349269822
   4.5592264000   10.3163528000   23.4014105501
   5.4710717000   11.6058969000   25.6349269822
   7.2947624000   10.3163528000   23.4014105501
   8.2066077000   11.6058969000   25.6349269822
   0.0000000000    0.0000000000   27.8684434143
   0.9118453000    1.2895441000   30.1020222840
   2.7355360000    0.0000000000   27.8684434143
   3.6473813000    1.2895441000   30.1020222840
   5.4710720000    0.0000000000   27.8684434143
   6.3829173000    1.2895441000   30.1020222840
   8.2066080000    0.0000000000   27.8684434143
   9.1184533000    1.2895441000   30.1020222840
  10.9421440000    0.0000000000   27.8684434143
  11.8539893000    1.2895441000   30.1020222840
  -0.9118454000    2.5790882000   27.8684434143
  -0.0000001000    3.8686323000   30.1020222840
   1.8236906000    2.5790882000   27.8684434143
   2.7355359000    3.8686323000   30.1020222840
   4.5592266000    2.5790882000   27.8684434143
   5.4710719000    3.8686323000   30.1020222840
   7.2947626000    2.5790882000   27.8684434143
   8.2066079000    3.8686323000   30.1020222840
  10.0302986000    2.5790882000   27.8684434143
  10.9421439000    3.8686323000   30.1020222840
  -1.8236908000    5.1581764000   27.8684434143
  -0.9118455000    6.4477205000   30.1020222840
   0.9118452000    5.1581764000   27.8684434143
   1.8236905000    6.4477205000   30.1020222840
   3.6473812000    5.1581764000   27.8684434143
   4.5592265000    6.4477205000   30.1020222840
   6.3829172000    5.1581764000   27.8684434143
   7.2947625000    6.4477205000   30.1020222840
   9.1184532000    5.1581764000   27.8684434143
  10.0302985000    6.4477205000   30.1020222840
  -2.7355362000    7.7372646000   27.8684434143
  -1.8236909000    9.0268087000   30.1020222840
  -0.0000002000    7.7372646000   27.8684434143
   0.9118451000    9.0268087000   30.1020222840
   2.7355358000    7.7372646000   27.8684434143
   3.6473811000    9.0268087000   30.1020222840
   5.4710718000    7.7372646000   27.8684434143
   6.3829171000    9.0268087000   30.1020222840
   8.2066078000    7.7372646000   27.8684434143
   9.1184531000    9.0268087000   30.1020222840
  -3.6473816000   10.3163528000   27.8684434143
  -2.7355363000   11.6058969000   30.1020222840
  -0.9118456000   10.3163528000   27.8684434143
  -0.0000003000   11.6058969000   30.1020222840
   1.8236904000   10.3163528000   27.8684434143
   2.7355357000   11.6058969000   30.1020222840
   4.5592264000   10.3163528000   27.8684434143
   5.4710717000   11.6058969000   30.1020222840
   7.2947624000   10.3163528000   27.8684434143
   8.2066077000   11.6058969000   30.1020222840
   2.7355360000    0.0000000000   32.3355387160
   3.6473813000    1.2895441000   34.5691175857
   5.4710720000    0.0000000000   32.3355387160
   6.3829173000    1.2895441000   34.5691175857
   8.2066080000    0.0000000000   32.3355387160
   9.1184533000    1.2895441000   34.5691175857
  10.9421440000    0.0000000000   32.3355387160
  11.8539893000    1.2895441000   34.5691175857
   0.0000000000    0.0000000000   32.3355387160
   0.9118453000    1.2895441000   34.5691175857
   1.8236906000    2.5790882000   32.3355387160
   2.7355359000    3.8686323000   34.5691175857
   4.5592266000    2.5790882000   32.3355387160
   5.4710719000    3.8686323000   34.5691175857
   7.2947626000    2.5790882000   32.3355387160
   8.2066079000    3.8686323000   34.5691175857
  10.0302986000    2.5790882000   32.3355387160
  10.9421439000    3.8686323000   34.5691175857
  -0.9118454000    2.5790882000   32.3355387160
  -0.0000001000    3.8686323000   34.5691175857
   0.9118452000    5.1581764000   32.3355387160
   1.8236905000    6.4477205000   34.5691175857
   3.6473812000    5.1581764000   32.3355387160
   4.5592265000    6.4477205000   34.5691175857
   6.3829172000    5.1581764000   32.3355387160
   7.2947625000    6.4477205000   34.5691175857
   9.1184532000    5.1581764000   32.3355387160
  10.0302985000    6.4477205000   34.5691175857
  -1.8236908000    5.1581764000   32.3355387160
  -0.9118455000    6.4477205000   34.5691175857
  -0.0000002000    7.7372646000   32.3355387160
   0.9118451000    9.0268087000   34.5691175857
   2.7355358000    7.7372646000   32.3355387160
   3.6473811000    9.0268087000   34.5691175857
   5.4710718000    7.7372646000   32.3355387160
   6.3829171000    9.0268087000   34.5691175857
   8.2066078000    7.7372646000   32.3355387160
   9.1184531000    9.0268087000   34.5691175857
  -2.7355362000    7.7372646000   32.3355387160
  -1.8236909000    9.0268087000   34.5691175857
  -0.9118456000   10.3163528000   32.3355387160
  -0.0000003000   11.6058969000   34.5691175857
   1.8236904000   10.3163528000   32.3355387160
   2.7355357000   11.6058969000   34.5691175857
   4.5592264000   10.3163528000   32.3355387160
   5.4710717000   11.6058969000   34.5691175857
   7.2947624000   10.3163528000   32.3355387160
   8.2066077000   11.6058969000   34.5691175857
  -3.6473816000   10.3163528000   32.3355387160
  -2.7355363000   11.6058969000   34.5691175857
   2.7355360000    0.0000000000   36.8026340178
   3.6473813000    1.2895441000   39.0361504499
   5.4710720000    0.0000000000   36.8026340178
   6.3829173000    1.2895441000   39.0361504499
   8.2066080000    0.0000000000   36.8026340178
   9.1184533000    1.2895441000   39.0361504499
  10.9421440000    0.0000000000   36.8026340178
  11.8539893000    1.2895441000   39.0361504499
   0.0000000000    0.0000000000   36.8026340178
   0.9118453000    1.2895441000   39.0361504499
   1.8236906000    2.5790882000   36.8026340178
   2.7355359000    3.8686323000   39.0361504499
   4.5592266000    2.5790882000   36.8026340178
   5.4710719000    3.8686323000   39.0361504499
   7.2947626000    2.5790882000   36.8026340178
   8.2066079000    3.8686323000   39.0361504499
  10.0302986000    2.5790882000   36.8026340178
  10.9421439000    3.8686323000   39.0361504499
  -0.9118454000    2.5790882000   36.8026340178
  -0.0000001000    3.8686323000   39.0361504499
   0.9118452000    5.1581764000   36.8026340178
   1.8236905000    6.4477205000   39.0361504499
   3.6473812000    5.1581764000   36.8026340178
   4.5592265000    6.4477205000   39.0361504499
   6.3829172000    5.1581764000   36.8026340178
   7.2947625000    6.4477205000   39.0361504499
   9.1184532000    5.1581764000   36.8026340178
  10.0302985000    6.4477205000   39.0361504499
  -1.8236908000    5.1581764000   36.8026340178
  -0.9118455000    6.4477205000   39.0361504499
  -0.0000002000    7.7372646000   36.8026340178
   0.9118451000    9.0268087000   39.0361504499
   2.7355358000    7.7372646000   36.8026340178
   3.6473811000    9.0268087000   39.0361504499
   5.4710718000    7.7372646000   36.8026340178
   6.3829171000    9.0268087000   39.0361504499
   8.2066078000    7.7372646000   36.8026340178
   9.1184531000    9.0268087000   39.0361504499
  -2.7355362000    7.7372646000   36.8026340178
  -1.8236909000    9.0268087000   39.0361504499
  -0.9118456000   10.3163528000   36.8026340178
  -0.0000003000   11.6058969000   39.0361504499
   1.8236904000   10.3163528000   36.8026340178
   2.7355357000   11.6058969000   39.0361504499
   4.5592264000   10.3163528000   36.8026340178
   5.4710717000   11.6058969000   39.0361504499
   7.2947624000   10.3163528000   36.8026340178
   8.2066077000   11.6058969000   39.0361504499
  -3.6473816000   10.3163528000   36.8026340178
  -2.7355363000   11.6058969000   39.0361504499
   2.7355360000    0.0000000000   41.2694171317
   3.6473813000    1.2895441000   43.5026838136
   5.4710720000    0.0000000000   41.2694171317
   6.3829173000    1.2895441000   43.5026838136
   8.2066080000    0.0000000000   41.2694171317
   9.1184533000    1.2895441000   43.5026838136
  10.9421440000    0.0000000000   41.2694171317
  11.8539893000    1.2895441000   43.5026838136
   0.0000000000    0.0000000000   41.2694171317
   0.9118453000    1.2895441000   43.5026838136
   1.8236906000    2.5790882000   41.2694171317
   2.7355359000    3.8686323000   43.5026838136
   4.5592266000    2.5790882000   41.2694171317
   5.4710719000    3.8686323000   43.5026838136
   7.2947626000    2.5790882000   41.2694171317
   8.2066079000    3.8686323000   43.5026838136
  10.0302986000    2.5790882000   41.2694171317
  10.9421439000    3.8686323000   43.5026838136
  -0.9118454000    2.5790882000   41.2694171317
  -0.0000001000    3.8686323000   43.5026838136
   0.9118452000    5.1581764000   41.2694171317
   1.8236905000    6.4477205000   43.5026838136
   3.6473812000    5.1581764000   41.2694171317
   4.5592265000    6.4477205000   43.5026838136
   6.3829172000    5.1581764000   41.2694171317
   7.2947625000    6.4477205000   43.5026838136
   9.1184532000    5.1581764000   41.2694171317
  10.0302985000    6.4477205000   43.5026838136
  -1.8236908000    5.1581764000   41.2694171317
  -0.9118455000    6.4477205000   43.5026838136
  -0.0000002000    7.7372646000   41.2694171317
   0.9118451000    9.0268087000   43.5026838136
   2.7355358000    7.7372646000   41.2694171317
   3.6473811000    9.0268087000   43.5026838136
   5.4710718000    7.7372646000   41.2694171317
   6.3829171000    9.0268087000   43.5026838136
   8.2066078000    7.7372646000   41.2694171317
   9.1184531000    9.0268087000   43.5026838136
  -2.7355362000    7.7372646000   41.2694171317
  -1.8236909000    9.0268087000   43.5026838136
  -0.9118456000   10.3163528000   41.2694171317
  -0.0000003000   11.6058969000   43.5026838136
   1.8236904000   10.3163528000   41.2694171317
   2.7355357000   11.6058969000   43.5026838136
   4.5592264000   10.3163528000   41.2694171317
   5.4710717000   11.6058969000   43.5026838136
   7.2947624000   10.3163528000   41.2694171317
   8.2066077000   11.6058969000   43.5026838136
  -3.6473816000   10.3163528000   41.2694171317
  -2.7355363000   11.6058969000   43.5026838136
   2.7355360000    0.0000000000   45.7344519940
   3.6473813000    1.2895441000   47.9620368578
   5.4710720000    0.0000000000   45.7344519940
   6.3829173000    1.2895441000   47.9620368578
   8.2066080000    0.0000000000   45.7344519940
   9.1184533000    1.2895441000   47.9620368578
  10.9421440000    0.0000000000   45.7344519940
  11.8539893000    1.2895441000   47.9620368578
   0.0000000000    0.0000000000   45.7344519940
   0.9118453000    1.2895441000   47.9620368578
   1.8236906000    2.5790882000   45.7344519940
   2.7355359000    3.8686323000   47.9620368578
   4.5592266000    2.5790882000   45.7344519940
   5.4710719000    3.8686323000   47.9620368578
   7.2947626000    2.5790882000   45.7344519940
   8.2066079000    3.8686323000   47.9620368578
  10.0302986000    2.5790882000   45.7344519940
  10.9421439000    3.8686323000   47.9620368578
  -0.9118454000    2.5790882000   45.7344519940
  -0.0000001000    3.8686323000   47.9620368578
   0.9118452000    5.1581764000   45.7344519940
   1.8236905000    6.4477205000   47.9620368578
   3.6473812000    5.1581764000   45.7344519940
   4.5592265000    6.4477205000   47.9620368578
   6.3829172000    5.1581764000   45.7344519940
   7.2947625000    6.4477205000   47.9620368578
   9.1184532000    5.1581764000   45.7344519940
  10.0302985000    6.4477205000   47.9620368578
  -1.8236908000    5.1581764000   45.7344519940
  -0.9118455000    6.4477205000   47.9620368578
  -0.0000002000    7.7372646000   45.7344519940
   0.9118451000    9.0268087000   47.9620368578
   2.7355358000    7.7372646000   45.7344519940
   3.6473811000    9.0268087000   47.9620368578
   5.4710718000    7.7372646000   45.7344519940
   6.3829171000    9.0268087000   47.9620368578
   8.2066078000    7.7372646000   45.7344519940
   9.1184531000    9.0268087000   47.9620368578
  -2.7355362000    7.7372646000   45.7344519940
  -1.8236909000    9.0268087000   47.9620368578
  -0.9118456000   10.3163528000   45.7344519940
  -0.0000003000   11.6058969000   47.9620368578
   1.8236904000   10.3163528000   45.7344519940
   2.7355357000   11.6058969000   47.9620368578
   4.5592264000   10.3163528000   45.7344519940
   5.4710717000   11.6058969000   47.9620368578
   7.2947624000   10.3163528000   45.7344519940
   8.2066077000   11.6058969000   47.9620368578
  -3.6473816000   10.3163528000   45.7344519940
  -2.7355363000   11.6058969000   47.9620368578
   2.7355360000    0.0000000000   50.1958654777
   3.6473813000    1.2895441000   52.2988249697
   5.4710720000    0.0000000000   50.1958654777
   6.3829173000    1.2895441000   52.2988249697
   8.2066080000    0.0000000000   50.1958654777
   9.1184533000    1.2895441000   52.2988249697
  10.9421440000    0.0000000000   50.1958654777
  11.8539893000    1.2895441000   52.2988249697
   0.0000000000    0.0000000000   50.1958654777
   0.9118453000    1.2895441000   52.2988249697
   1.8236906000    2.5790882000   50.1958654777
   2.7355359000    3.8686323000   52.2988249697
   4.5592266000    2.5790882000   50.1958654777
   5.4710719000    3.8686323000   52.2988249697
   7.2947626000    2.5790882000   50.1958654777
   8.2066079000    3.8686323000   52.2988249697
  10.0302986000    2.5790882000   50.1958654777
  10.9421439000    3.8686323000   52.2988249697
  -0.9118454000    2.5790882000   50.1958654777
  -0.0000001000    3.8686323000   52.2988249697
   0.9118452000    5.1581764000   50.1958654777
   1.8236905000    6.4477205000   52.2988249697
   3.6473812000    5.1581764000   50.1958654777
   4.5592265000    6.4477205000   52.2988249697
   6.3829172000    5.1581764000   50.1958654777
   7.2947625000    6.4477205000   52.2988249697
   9.1184532000    5.1581764000   50.1958654777
  10.0302985000    6.4477205000   52.2988249697
  -1.8236908000    5.1581764000   50.1958654777
  -0.9118455000    6.4477205000   52.2988249697
  -0.0000002000    7.7372646000   50.1958654777
   0.9118451000    9.0268087000   52.2988249697
   2.7355358000    7.7372646000   50.1958654777
   3.6473811000    9.0268087000   52.2988249697
   5.4710718000    7.7372646000   50.1958654777
   6.3829171000    9.0268087000   52.2988249697
   8.2066078000    7.7372646000   50.1958654777
   9.1184531000    9.0268087000   52.2988249697
  -2.7355362000    7.7372646000   50.1958654777
  -1.8236909000    9.0268087000   52.2988249697
  -0.9118456000   10.3163528000   50.1958654777
  -0.0000003000   11.6058969000   52.2988249697
   1.8236904000   10.3163528000   50.1958654777
   2.7355357000   11.6058969000   52.2988249697
   4.5592264000   10.3163528000   50.1958654777
   5.4710717000   11.6058969000   52.2988249697
   7.2947624000   10.3163528000   50.1958654777
   8.2066077000   11.6058969000   52.2988249697
  -3.6473816000   10.3163528000   50.1958654777
  -2.7355363000   11.6058969000   52.2988249697
