Mo500 
1.0
1.3677680000000001e+01 0.0000000000000000e+00 0.0000000000000000e+00 
-4.5592269999999999e+00 1.2895441000000000e+01 0.0000000000000000e+00 
0.0000000000000000e+00 0.0000000000000000e+00 6.2437561000000002e+01 
Mo 
500 
Cartesian
   0.0000000000    0.0000000000   10.0626246434
   0.9118453000    1.2895441000   12.1655216979
   2.7355360000    0.0000000000   10.0626246434
   3.6473813000    1.2895441000   12.1655216979
   5.4710720000    0.0000000000   10.0626246434
   6.3829173000    1.2895441000   12.1655216979
   8.2066080000    0.0000000000   10.0626246434
   9.1184533000    1.2895441000   12.1655216979
  10.9421440000    0.0000000000   10.0626246434
  11.8539893000    1.2895441000   12.1655216979
  -0.9118454000    2.5790882000   10.0626246434
  -0.0000001000    3.8686323000   12.1655216979
   1.8236906000    2.5790882000   10.0626246434
   2.7355359000    3.8686323000   12.1655216979
   4.5592266000    2.5790882000   10.0626246434
   5.4710719000    3.8686323000   12.1655216979
   7.2947626000    2.5790882000   10.0626246434
   8.2066079000    3.8686323000   12.1655216979
  10.0302986000    2.5790882000   10.0626246434
  10.9421439000    3.8686323000   12.1655216979
  -1.8236908000    5.1581764000   10.0626246434
  -0.9118455000    6.4477205000   12.1655216979
   0.9118452000    5.1581764000   10.0626246434
   1.8236905000    6.4477205000   12.1655216979
   3.6473812000    5.1581764000   10.0626246434
   4.5592265000    6.4477205000   12.1655216979
   6.3829172000    5.1581764000   10.0626246434
   7.2947625000    6.4477205000   12.1655216979
   9.1184532000    5.1581764000   10.0626246434
  10.0302985000    6.4477205000   12.1655216979
  -2.7355362000    7.7372646000   10.0626246434
  -1.8236909000    9.0268087000   12.1655216979
  -0.0000002000    7.7372646000   10.0626246434
   0.9118451000    9.0268087000   12.1655216979
   2.7355358000    7.7372646000   10.0626246434
   3.6473811000    9.0268087000   12.1655216979
   5.4710718000    7.7372646000   10.0626246434
   6.3829171000    9.0268087000   12.1655216979
   8.2066078000    7.7372646000   10.0626246434
   9.1184531000    9.0268087000   12.1655216979
  -3.6473816000   10.3163528000   10.0626246434
  -2.7355363000   11.6058969000   12.1655216979
  -0.9118456000   10.3163528000   10.0626246434
  -0.0000003000   11.6058969000   12.1655216979
   1.8236904000   10.3163528000   10.0626246434
   2.7355357000   11.6058969000   12.1655216979
   4.5592264000   10.3163528000   10.0626246434
   5.4710717000   11.6058969000   12.1655216979
   7.2947624000   10.3163528000   10.0626246434
   8.2066077000   11.6058969000   12.1655216979
   0.0000000000    0.0000000000   14.3993503178
   0.9118453000    1.2895441000   16.6270600567
   2.7355360000    0.0000000000   14.3993503178
   3.6473813000    1.2895441000   16.6270600567
   5.4710720000    0.0000000000   14.3993503178
   6.3829173000    1.2895441000   16.6270600567
   8.2066080000    0.0000000000   14.3993503178
   9.1184533000    1.2895441000   16.6270600567
  10.9421440000    0.0000000000   14.3993503178
  11.8539893000    1.2895441000   16.6270600567
  -0.9118454000    2.5790882000   14.3993503178
  -0.0000001000    3.8686323000   16.6270600567
   1.8236906000    2.5790882000   14.3993503178
   2.7355359000    3.8686323000   16.6270600567
   4.5592266000    2.5790882000   14.3993503178
   5.4710719000    3.8686323000   16.6270600567
   7.2947626000    2.5790882000   14.3993503178
   8.2066079000    3.8686323000   16.6270600567
  10.0302986000    2.5790882000   14.3993503178
  10.9421439000    3.8686323000   16.6270600567
  -1.8236908000    5.1581764000   14.3993503178
  -0.9118455000    6.4477205000   16.6270600567
   0.9118452000    5.1581764000   14.3993503178
   1.8236905000    6.4477205000   16.6270600567
   3.6473812000    5.1581764000   14.3993503178
   4.5592265000    6.4477205000   16.6270600567
   6.3829172000    5.1581764000   14.3993503178
   7.2947625000    6.4477205000   16.6270600567
   9.1184532000    5.1581764000   14.3993503178
  10.0302985000    6.4477205000   16.6270600567
  -2.7355362000    7.7372646000   14.3993503178
  -1.8236909000    9.0268087000   16.6270600567
  -0.0000002000    7.7372646000   14.3993503178
   0.9118451000    9.0268087000   16.6270600567
   2.7355358000    7.7372646000   14.3993503178
   3.6473811000    9.0268087000   16.6270600567
   5.4710718000    7.7372646000   14.3993503178
   6.3829171000    9.0268087000   16.6270600567
   8.2066078000    7.7372646000   14.3993503178
   9.1184531000    9.0268087000   16.6270600567
  -3.6473816000   10.3163528000   14.3993503178
  -2.7355363000   11.6058969000   16.6270600567
  -0.9118456000   10.3163528000   14.3993503178
  -0.0000003000   11.6058969000   16.6270600567
   1.8236904000   10.3163528000   14.3993503178
   2.7355357000   11.6058969000   16.6270600567
   4.5592264000   10.3163528000   14.3993503178
   5.4710717000   11.6058969000   16.6270600567
   7.2947624000   10.3163528000   14.3993503178
   8.2066077000   11.6058969000   16.6270600567
   0.0000000000    0.0000000000   18.8587657996
   0.9118453000    1.2895441000   21.0917202936
   2.7355360000    0.0000000000   18.8587657996
   3.6473813000    1.2895441000   21.0917202936
   5.4710720000    0.0000000000   18.8587657996
   6.3829173000    1.2895441000   21.0917202936
   8.2066080000    0.0000000000   18.8587657996
   9.1184533000    1.2895441000   21.0917202936
  10.9421440000    0.0000000000   18.8587657996
  11.8539893000    1.2895441000   21.0917202936
  -0.9118454000    2.5790882000   18.8587657996
  -0.0000001000    3.8686323000   21.0917202936
   1.8236906000    2.5790882000   18.8587657996
   2.7355359000    3.8686323000   21.0917202936
   4.5592266000    2.5790882000   18.8587657996
   5.4710719000    3.8686323000   21.0917202936
   7.2947626000    2.5790882000   18.8587657996
   8.2066079000    3.8686323000   21.0917202936
  10.0302986000    2.5790882000   18.8587657996
  10.9421439000    3.8686323000   21.0917202936
  -1.8236908000    5.1581764000   18.8587657996
  -0.9118455000    6.4477205000   21.0917202936
   0.9118452000    5.1581764000   18.8587657996
   1.8236905000    6.4477205000   21.0917202936
   3.6473812000    5.1581764000   18.8587657996
   4.5592265000    6.4477205000   21.0917202936
   6.3829172000    5.1581764000   18.8587657996
   7.2947625000    6.4477205000   21.0917202936
   9.1184532000    5.1581764000   18.8587657996
  10.0302985000    6.4477205000   21.0917202936
  -2.7355362000    7.7372646000   18.8587657996
  -1.8236909000    9.0268087000   21.0917202936
  -0.0000002000    7.7372646000   18.8587657996
   0.9118451000    9.0268087000   21.0917202936
   2.7355358000    7.7372646000   18.8587657996
   3.6473811000    9.0268087000   21.0917202936
   5.4710718000    7.7372646000   18.8587657996
   6.3829171000    9.0268087000   21.0917202936
   8.2066078000    7.7372646000   18.8587657996
   9.1184531000    9.0268087000   21.0917202936
  -3.6473816000   10.3163528000   18.8587657996
  -2.7355363000   11.6058969000   21.0917202936
  -0.9118456000   10.3163528000   18.8587657996
  -0.0000003000   11.6058969000   21.0917202936
   1.8236904000   10.3163528000   18.8587657996
   2.7355357000   11.6058969000   21.0917202936
   4.5592264000   10.3163528000   18.8587657996
   5.4710717000   11.6058969000   21.0917202936
   7.2947624000   10.3163528000   18.8587657996
   8.2066077000   11.6058969000   21.0917202936
   0.0000000000    0.0000000000   23.3266103520
   0.9118453000    1.2895441000   25.5615004105
   2.7355360000    0.0000000000   23.3266103520
   3.6473813000    1.2895441000   25.5615004105
   5.4710720000    0.0000000000   23.3266103520
   6.3829173000    1.2895441000   25.5615004105
   8.2066080000    0.0000000000   23.3266103520
   9.1184533000    1.2895441000   25.5615004105
  10.9421440000    0.0000000000   23.3266103520
  11.8539893000    1.2895441000   25.5615004105
  -0.9118454000    2.5790882000   23.3266103520
  -0.0000001000    3.8686323000   25.5615004105
   1.8236906000    2.5790882000   23.3266103520
   2.7355359000    3.8686323000   25.5615004105
   4.5592266000    2.5790882000   23.3266103520
   5.4710719000    3.8686323000   25.5615004105
   7.2947626000    2.5790882000   23.3266103520
   8.2066079000    3.8686323000   25.5615004105
  10.0302986000    2.5790882000   23.3266103520
  10.9421439000    3.8686323000   25.5615004105
  -1.8236908000    5.1581764000   23.3266103520
  -0.9118455000    6.4477205000   25.5615004105
   0.9118452000    5.1581764000   23.3266103520
   1.8236905000    6.4477205000   25.5615004105
   3.6473812000    5.1581764000   23.3266103520
   4.5592265000    6.4477205000   25.5615004105
   6.3829172000    5.1581764000   23.3266103520
   7.2947625000    6.4477205000   25.5615004105
   9.1184532000    5.1581764000   23.3266103520
  10.0302985000    6.4477205000   25.5615004105
  -2.7355362000    7.7372646000   23.3266103520
  -1.8236909000    9.0268087000   25.5615004105
  -0.0000002000    7.7372646000   23.3266103520
   0.9118451000    9.0268087000   25.5615004105
   2.7355358000    7.7372646000   23.3266103520
   3.6473811000    9.0268087000   25.5615004105
   5.4710718000    7.7372646000   23.3266103520
   6.3829171000    9.0268087000   25.5615004105
   8.2066078000    7.7372646000   23.3266103520
   9.1184531000    9.0268087000   25.5615004105
  -3.6473816000   10.3163528000   23.3266103520
  -2.7355363000   11.6058969000   25.5615004105
  -0.9118456000   10.3163528000   23.3266103520
  -0.0000003000   11.6058969000   25.5615004105
   1.8236904000   10.3163528000   23.3266103520
   2.7355357000   11.6058969000   25.5615004105
   4.5592264000   10.3163528000   23.3266103520
   5.4710717000   11.6058969000   25.5615004105
   7.2947624000   10.3163528000   23.3266103520
   8.2066077000   11.6058969000   25.5615004105
   0.0000000000    0.0000000000   27.7865877718
   0.9118453000    1.2895441000   30.0114878205
   2.7355360000    0.0000000000   27.7865877718
   3.6473813000    1.2895441000   30.0114878205
   5.4710720000    0.0000000000   27.7865877718
   6.3829173000    1.2895441000   30.0114878205
   8.2066080000    0.0000000000   27.7865877718
   9.1184533000    1.2895441000   30.0114878205
  10.9421440000    0.0000000000   27.7865877718
  11.8539893000    1.2895441000   30.0114878205
  -0.9118454000    2.5790882000   27.7865877718
  -0.0000001000    3.8686323000   30.0114878205
   1.8236906000    2.5790882000   27.7865877718
   2.7355359000    3.8686323000   30.0114878205
   4.5592266000    2.5790882000   27.7865877718
   5.4710719000    3.8686323000   30.0114878205
   7.2947626000    2.5790882000   27.7865877718
   8.2066079000    3.8686323000   30.0114878205
  10.0302986000    2.5790882000   27.7865877718
  10.9421439000    3.8686323000   30.0114878205
  -1.8236908000    5.1581764000   27.7865877718
  -0.9118455000    6.4477205000   30.0114878205
   0.9118452000    5.1581764000   27.7865877718
   1.8236905000    6.4477205000   30.0114878205
   3.6473812000    5.1581764000   27.7865877718
   4.5592265000    6.4477205000   30.0114878205
   6.3829172000    5.1581764000   27.7865877718
   7.2947625000    6.4477205000   30.0114878205
   9.1184532000    5.1581764000   27.7865877718
  10.0302985000    6.4477205000   30.0114878205
  -2.7355362000    7.7372646000   27.7865877718
  -1.8236909000    9.0268087000   30.0114878205
  -0.0000002000    7.7372646000   27.7865877718
   0.9118451000    9.0268087000   30.0114878205
   2.7355358000    7.7372646000   27.7865877718
   3.6473811000    9.0268087000   30.0114878205
   5.4710718000    7.7372646000   27.7865877718
   6.3829171000    9.0268087000   30.0114878205
   8.2066078000    7.7372646000   27.7865877718
   9.1184531000    9.0268087000   30.0114878205
  -3.6473816000   10.3163528000   27.7865877718
  -2.7355363000   11.6058969000   30.0114878205
  -0.9118456000   10.3163528000   27.7865877718
  -0.0000003000   11.6058969000   30.0114878205
   1.8236904000   10.3163528000   27.7865877718
   2.7355357000   11.6058969000   30.0114878205
   4.5592264000   10.3163528000   27.7865877718
   5.4710717000   11.6058969000   30.0114878205
   7.2947624000   10.3163528000   27.7865877718
   8.2066077000   11.6058969000   30.0114878205
   1.3677680000    0.0000000000   32.4260731795
   2.2796133000    1.2895441000   34.6509732282
   4.1033040000    0.0000000000   32.4260731795
   5.0151493000    1.2895441000   34.6509732282
   6.8388400000    0.0000000000   32.4260731795
   7.7506853000    1.2895441000   34.6509732282
   9.5743760000    0.0000000000   32.4260731795
  10.4862213000    1.2895441000   34.6509732282
  12.3099120000    0.0000000000   32.4260731795
  -0.4559227000    1.2895441000   34.6509732282
   0.4559226000    2.5790882000   32.4260731795
   1.3677679000    3.8686323000   34.6509732282
   3.1914586000    2.5790882000   32.4260731795
   4.1033039000    3.8686323000   34.6509732282
   5.9269946000    2.5790882000   32.4260731795
   6.8388399000    3.8686323000   34.6509732282
   8.6625306000    2.5790882000   32.4260731795
   9.5743759000    3.8686323000   34.6509732282
  11.3980666000    2.5790882000   32.4260731795
  -1.3677681000    3.8686323000   34.6509732282
  -0.4559228000    5.1581764000   32.4260731795
   0.4559225000    6.4477205000   34.6509732282
   2.2796132000    5.1581764000   32.4260731795
   3.1914585000    6.4477205000   34.6509732282
   5.0151492000    5.1581764000   32.4260731795
   5.9269945000    6.4477205000   34.6509732282
   7.7506852000    5.1581764000   32.4260731795
   8.6625305000    6.4477205000   34.6509732282
  10.4862212000    5.1581764000   32.4260731795
  -2.2796135000    6.4477205000   34.6509732282
  -1.3677682000    7.7372646000   32.4260731795
  -0.4559229000    9.0268087000   34.6509732282
   1.3677678000    7.7372646000   32.4260731795
   2.2796131000    9.0268087000   34.6509732282
   4.1033038000    7.7372646000   32.4260731795
   5.0151491000    9.0268087000   34.6509732282
   6.8388398000    7.7372646000   32.4260731795
   7.7506851000    9.0268087000   34.6509732282
   9.5743758000    7.7372646000   32.4260731795
  -3.1914589000    9.0268087000   34.6509732282
  -2.2796136000   10.3163528000   32.4260731795
  -1.3677683000   11.6058969000   34.6509732282
   0.4559224000   10.3163528000   32.4260731795
   1.3677677000   11.6058969000   34.6509732282
   3.1914584000   10.3163528000   32.4260731795
   4.1033037000   11.6058969000   34.6509732282
   5.9269944000   10.3163528000   32.4260731795
   6.8388397000   11.6058969000   34.6509732282
   8.6625304000   10.3163528000   32.4260731795
  -4.1033043000   11.6058969000   34.6509732282
   1.3677680000    0.0000000000   36.8760605895
   2.2796133000    1.2895441000   39.1109506480
   4.1033040000    0.0000000000   36.8760605895
   5.0151493000    1.2895441000   39.1109506480
   6.8388400000    0.0000000000   36.8760605895
   7.7506853000    1.2895441000   39.1109506480
   9.5743760000    0.0000000000   36.8760605895
  10.4862213000    1.2895441000   39.1109506480
  12.3099120000    0.0000000000   36.8760605895
  -0.4559227000    1.2895441000   39.1109506480
   0.4559226000    2.5790882000   36.8760605895
   1.3677679000    3.8686323000   39.1109506480
   3.1914586000    2.5790882000   36.8760605895
   4.1033039000    3.8686323000   39.1109506480
   5.9269946000    2.5790882000   36.8760605895
   6.8388399000    3.8686323000   39.1109506480
   8.6625306000    2.5790882000   36.8760605895
   9.5743759000    3.8686323000   39.1109506480
  11.3980666000    2.5790882000   36.8760605895
  -1.3677681000    3.8686323000   39.1109506480
  -0.4559228000    5.1581764000   36.8760605895
   0.4559225000    6.4477205000   39.1109506480
   2.2796132000    5.1581764000   36.8760605895
   3.1914585000    6.4477205000   39.1109506480
   5.0151492000    5.1581764000   36.8760605895
   5.9269945000    6.4477205000   39.1109506480
   7.7506852000    5.1581764000   36.8760605895
   8.6625305000    6.4477205000   39.1109506480
  10.4862212000    5.1581764000   36.8760605895
  -2.2796135000    6.4477205000   39.1109506480
  -1.3677682000    7.7372646000   36.8760605895
  -0.4559229000    9.0268087000   39.1109506480
   1.3677678000    7.7372646000   36.8760605895
   2.2796131000    9.0268087000   39.1109506480
   4.1033038000    7.7372646000   36.8760605895
   5.0151491000    9.0268087000   39.1109506480
   6.8388398000    7.7372646000   36.8760605895
   7.7506851000    9.0268087000   39.1109506480
   9.5743758000    7.7372646000   36.8760605895
  -3.1914589000    9.0268087000   39.1109506480
  -2.2796136000   10.3163528000   36.8760605895
  -1.3677683000   11.6058969000   39.1109506480
   0.4559224000   10.3163528000   36.8760605895
   1.3677677000   11.6058969000   39.1109506480
   3.1914584000   10.3163528000   36.8760605895
   4.1033037000   11.6058969000   39.1109506480
   5.9269944000   10.3163528000   36.8760605895
   6.8388397000   11.6058969000   39.1109506480
   8.6625304000   10.3163528000   36.8760605895
  -4.1033043000   11.6058969000   39.1109506480
   1.3677680000    0.0000000000   41.3458407064
   2.2796133000    1.2895441000   43.5787952004
   4.1033040000    0.0000000000   41.3458407064
   5.0151493000    1.2895441000   43.5787952004
   6.8388400000    0.0000000000   41.3458407064
   7.7506853000    1.2895441000   43.5787952004
   9.5743760000    0.0000000000   41.3458407064
  10.4862213000    1.2895441000   43.5787952004
  12.3099120000    0.0000000000   41.3458407064
  -0.4559227000    1.2895441000   43.5787952004
   0.4559226000    2.5790882000   41.3458407064
   1.3677679000    3.8686323000   43.5787952004
   3.1914586000    2.5790882000   41.3458407064
   4.1033039000    3.8686323000   43.5787952004
   5.9269946000    2.5790882000   41.3458407064
   6.8388399000    3.8686323000   43.5787952004
   8.6625306000    2.5790882000   41.3458407064
   9.5743759000    3.8686323000   43.5787952004
  11.3980666000    2.5790882000   41.3458407064
  -1.3677681000    3.8686323000   43.5787952004
  -0.4559228000    5.1581764000   41.3458407064
   0.4559225000    6.4477205000   43.5787952004
   2.2796132000    5.1581764000   41.3458407064
   3.1914585000    6.4477205000   43.5787952004
   5.0151492000    5.1581764000   41.3458407064
   5.9269945000    6.4477205000   43.5787952004
   7.7506852000    5.1581764000   41.3458407064
   8.6625305000    6.4477205000   43.5787952004
  10.4862212000    5.1581764000   41.3458407064
  -2.2796135000    6.4477205000   43.5787952004
  -1.3677682000    7.7372646000   41.3458407064
  -0.4559229000    9.0268087000   43.5787952004
   1.3677678000    7.7372646000   41.3458407064
   2.2796131000    9.0268087000   43.5787952004
   4.1033038000    7.7372646000   41.3458407064
   5.0151491000    9.0268087000   43.5787952004
   6.8388398000    7.7372646000   41.3458407064
   7.7506851000    9.0268087000   43.5787952004
   9.5743758000    7.7372646000   41.3458407064
  -3.1914589000    9.0268087000   43.5787952004
  -2.2796136000   10.3163528000   41.3458407064
  -1.3677683000   11.6058969000   43.5787952004
   0.4559224000   10.3163528000   41.3458407064
   1.3677677000   11.6058969000   43.5787952004
   3.1914584000   10.3163528000   41.3458407064
   4.1033037000   11.6058969000   43.5787952004
   5.9269944000   10.3163528000   41.3458407064
   6.8388397000   11.6058969000   43.5787952004
   8.6625304000   10.3163528000   41.3458407064
  -4.1033043000   11.6058969000   43.5787952004
   1.3677680000    0.0000000000   45.8105009433
   2.2796133000    1.2895441000   48.0382106822
   4.1033040000    0.0000000000   45.8105009433
   5.0151493000    1.2895441000   48.0382106822
   6.8388400000    0.0000000000   45.8105009433
   7.7506853000    1.2895441000   48.0382106822
   9.5743760000    0.0000000000   45.8105009433
  10.4862213000    1.2895441000   48.0382106822
  12.3099120000    0.0000000000   45.8105009433
  -0.4559227000    1.2895441000   48.0382106822
   0.4559226000    2.5790882000   45.8105009433
   1.3677679000    3.8686323000   48.0382106822
   3.1914586000    2.5790882000   45.8105009433
   4.1033039000    3.8686323000   48.0382106822
   5.9269946000    2.5790882000   45.8105009433
   6.8388399000    3.8686323000   48.0382106822
   8.6625306000    2.5790882000   45.8105009433
   9.5743759000    3.8686323000   48.0382106822
  11.3980666000    2.5790882000   45.8105009433
  -1.3677681000    3.8686323000   48.0382106822
  -0.4559228000    5.1581764000   45.8105009433
   0.4559225000    6.4477205000   48.0382106822
   2.2796132000    5.1581764000   45.8105009433
   3.1914585000    6.4477205000   48.0382106822
   5.0151492000    5.1581764000   45.8105009433
   5.9269945000    6.4477205000   48.0382106822
   7.7506852000    5.1581764000   45.8105009433
   8.6625305000    6.4477205000   48.0382106822
  10.4862212000    5.1581764000   45.8105009433
  -2.2796135000    6.4477205000   48.0382106822
  -1.3677682000    7.7372646000   45.8105009433
  -0.4559229000    9.0268087000   48.0382106822
   1.3677678000    7.7372646000   45.8105009433
   2.2796131000    9.0268087000   48.0382106822
   4.1033038000    7.7372646000   45.8105009433
   5.0151491000    9.0268087000   48.0382106822
   6.8388398000    7.7372646000   45.8105009433
   7.7506851000    9.0268087000   48.0382106822
   9.5743758000    7.7372646000   45.8105009433
  -3.1914589000    9.0268087000   48.0382106822
  -2.2796136000   10.3163528000   45.8105009433
  -1.3677683000   11.6058969000   48.0382106822
   0.4559224000   10.3163528000   45.8105009433
   1.3677677000   11.6058969000   48.0382106822
   3.1914584000   10.3163528000   45.8105009433
   4.1033037000   11.6058969000   48.0382106822
   5.9269944000   10.3163528000   45.8105009433
   6.8388397000   11.6058969000   48.0382106822
   8.6625304000   10.3163528000   45.8105009433
  -4.1033043000   11.6058969000   48.0382106822
   1.3677680000    0.0000000000   50.2720393021
   2.2796133000    1.2895441000   52.3749363566
   4.1033040000    0.0000000000   50.2720393021
   5.0151493000    1.2895441000   52.3749363566
   6.8388400000    0.0000000000   50.2720393021
   7.7506853000    1.2895441000   52.3749363566
   9.5743760000    0.0000000000   50.2720393021
  10.4862213000    1.2895441000   52.3749363566
  12.3099120000    0.0000000000   50.2720393021
  -0.4559227000    1.2895441000   52.3749363566
   0.4559226000    2.5790882000   50.2720393021
   1.3677679000    3.8686323000   52.3749363566
   3.1914586000    2.5790882000   50.2720393021
   4.1033039000    3.8686323000   52.3749363566
   5.9269946000    2.5790882000   50.2720393021
   6.8388399000    3.8686323000   52.3749363566
   8.6625306000    2.5790882000   50.2720393021
   9.5743759000    3.8686323000   52.3749363566
  11.3980666000    2.5790882000   50.2720393021
  -1.3677681000    3.8686323000   52.3749363566
  -0.4559228000    5.1581764000   50.2720393021
   0.4559225000    6.4477205000   52.3749363566
   2.2796132000    5.1581764000   50.2720393021
   3.1914585000    6.4477205000   52.3749363566
   5.0151492000    5.1581764000   50.2720393021
   5.9269945000    6.4477205000   52.3749363566
   7.7506852000    5.1581764000   50.2720393021
   8.6625305000    6.4477205000   52.3749363566
  10.4862212000    5.1581764000   50.2720393021
  -2.2796135000    6.4477205000   52.3749363566
  -1.3677682000    7.7372646000   50.2720393021
  -0.4559229000    9.0268087000   52.3749363566
   1.3677678000    7.7372646000   50.2720393021
   2.2796131000    9.0268087000   52.3749363566
   4.1033038000    7.7372646000   50.2720393021
   5.0151491000    9.0268087000   52.3749363566
   6.8388398000    7.7372646000   50.2720393021
   7.7506851000    9.0268087000   52.3749363566
   9.5743758000    7.7372646000   50.2720393021
  -3.1914589000    9.0268087000   52.3749363566
  -2.2796136000   10.3163528000   50.2720393021
  -1.3677683000   11.6058969000   52.3749363566
   0.4559224000   10.3163528000   50.2720393021
   1.3677677000   11.6058969000   52.3749363566
   3.1914584000   10.3163528000   50.2720393021
   4.1033037000   11.6058969000   52.3749363566
   5.9269944000   10.3163528000   50.2720393021
   6.8388397000   11.6058969000   52.3749363566
   8.6625304000   10.3163528000   50.2720393021
  -4.1033043000   11.6058969000   52.3749363566
