 H  C 
 1.0000000000000000
    10.2510616790408058    0.0000000000000000    0.0000000000000000
    -0.2045252215366555    9.7271139448434099    0.0000000000000000
    -0.1997757990704655    0.0336085047632076   10.2261513809238860
   H   C
   4   1
Cartesian
  5.3412911749192125  3.9554170352927365  3.6753737025333586
  3.8387925896906108  4.7181849674979235  4.5245627652855793
  5.5021294395366169  5.5070812313343893  4.5352008043197936
  5.2312730544113046  4.0514581494370461  5.4851055352740747
  4.9608574455983296  4.5755679835988952  4.5395920383061501
