POSCAR file written by OVITO
1
28.223692 0.0 0.0
0.802336 28.9035034 0.0
-0.0394879 0.3255354 29.5359421
H C 
4 1 
Cartesian
14.7667208 12.9227772 12.3465023
13.4830008 13.7267666 13.3374529
14.8872604 14.6415167 12.7989025
14.9950714 13.3044872 14.064043
14.576211 13.6491776 13.1590929
