ATOMIC_SPECIES
Al 26.982 Al_ONCV_PBE-1.0.upf

NUMERICAL_ORBITAL
Al_gga_9au_100Ry_4s4p1d.orb

LATTICE_CONSTANT
1.8897261254578281

LATTICE_VECTORS
4.04 0.0 0.0 
0.0 4.04 0.0 
0.0 0.0 4.04

ATOMIC_POSITIONS
Direct    # Cartesian(Unit is LATTICE_CONSTANT)
Al
0.0
4
0.00 0.00 0.00 1 1 1
0.51 0.51 0.00 1 1 1
0.50 0.00 0.50 1 1 1
0.00 0.50 0.50 1 1 1
