Mo500 
1.0
1.3677680000000001e+01 0.0000000000000000e+00 0.0000000000000000e+00 
-4.5592269999999999e+00 1.2895441000000000e+01 0.0000000000000000e+00 
0.0000000000000000e+00 0.0000000000000000e+00 6.2437561000000002e+01 
Mo 
500 
Cartesian
   0.0000000000    0.0000000000   10.0646850830
   0.9118453000    1.2895441000   12.1675821374
   2.7355360000    0.0000000000   10.0646850830
   3.6473813000    1.2895441000   12.1675821374
   5.4710720000    0.0000000000   10.0646850830
   6.3829173000    1.2895441000   12.1675821374
   8.2066080000    0.0000000000   10.0646850830
   9.1184533000    1.2895441000   12.1675821374
  10.9421440000    0.0000000000   10.0646850830
  11.8539893000    1.2895441000   12.1675821374
  -0.9118454000    2.5790882000   10.0646850830
  -0.0000001000    3.8686323000   12.1675821374
   1.8236906000    2.5790882000   10.0646850830
   2.7355359000    3.8686323000   12.1675821374
   4.5592266000    2.5790882000   10.0646850830
   5.4710719000    3.8686323000   12.1675821374
   7.2947626000    2.5790882000   10.0646850830
   8.2066079000    3.8686323000   12.1675821374
  10.0302986000    2.5790882000   10.0646850830
  10.9421439000    3.8686323000   12.1675821374
  -1.8236908000    5.1581764000   10.0646850830
  -0.9118455000    6.4477205000   12.1675821374
   0.9118452000    5.1581764000   10.0646850830
   1.8236905000    6.4477205000   12.1675821374
   3.6473812000    5.1581764000   10.0646850830
   4.5592265000    6.4477205000   12.1675821374
   6.3829172000    5.1581764000   10.0646850830
   7.2947625000    6.4477205000   12.1675821374
   9.1184532000    5.1581764000   10.0646850830
  10.0302985000    6.4477205000   12.1675821374
  -2.7355362000    7.7372646000   10.0646850830
  -1.8236909000    9.0268087000   12.1675821374
  -0.0000002000    7.7372646000   10.0646850830
   0.9118451000    9.0268087000   12.1675821374
   2.7355358000    7.7372646000   10.0646850830
   3.6473811000    9.0268087000   12.1675821374
   5.4710718000    7.7372646000   10.0646850830
   6.3829171000    9.0268087000   12.1675821374
   8.2066078000    7.7372646000   10.0646850830
   9.1184531000    9.0268087000   12.1675821374
  -3.6473816000   10.3163528000   10.0646850830
  -2.7355363000   11.6058969000   12.1675821374
  -0.9118456000   10.3163528000   10.0646850830
  -0.0000003000   11.6058969000   12.1675821374
   1.8236904000   10.3163528000   10.0646850830
   2.7355357000   11.6058969000   12.1675821374
   4.5592264000   10.3163528000   10.0646850830
   5.4710717000   11.6058969000   12.1675821374
   7.2947624000   10.3163528000   10.0646850830
   8.2066077000   11.6058969000   12.1675821374
   0.0000000000    0.0000000000   14.4014107573
   0.9118453000    1.2895441000   16.6290580587
   2.7355360000    0.0000000000   14.4014107573
   3.6473813000    1.2895441000   16.6290580587
   5.4710720000    0.0000000000   14.4014107573
   6.3829173000    1.2895441000   16.6290580587
   8.2066080000    0.0000000000   14.4014107573
   9.1184533000    1.2895441000   16.6290580587
  10.9421440000    0.0000000000   14.4014107573
  11.8539893000    1.2895441000   16.6290580587
  -0.9118454000    2.5790882000   14.4014107573
  -0.0000001000    3.8686323000   16.6290580587
   1.8236906000    2.5790882000   14.4014107573
   2.7355359000    3.8686323000   16.6290580587
   4.5592266000    2.5790882000   14.4014107573
   5.4710719000    3.8686323000   16.6290580587
   7.2947626000    2.5790882000   14.4014107573
   8.2066079000    3.8686323000   16.6290580587
  10.0302986000    2.5790882000   14.4014107573
  10.9421439000    3.8686323000   16.6290580587
  -1.8236908000    5.1581764000   14.4014107573
  -0.9118455000    6.4477205000   16.6290580587
   0.9118452000    5.1581764000   14.4014107573
   1.8236905000    6.4477205000   16.6290580587
   3.6473812000    5.1581764000   14.4014107573
   4.5592265000    6.4477205000   16.6290580587
   6.3829172000    5.1581764000   14.4014107573
   7.2947625000    6.4477205000   16.6290580587
   9.1184532000    5.1581764000   14.4014107573
  10.0302985000    6.4477205000   16.6290580587
  -2.7355362000    7.7372646000   14.4014107573
  -1.8236909000    9.0268087000   16.6290580587
  -0.0000002000    7.7372646000   14.4014107573
   0.9118451000    9.0268087000   16.6290580587
   2.7355358000    7.7372646000   14.4014107573
   3.6473811000    9.0268087000   16.6290580587
   5.4710718000    7.7372646000   14.4014107573
   6.3829171000    9.0268087000   16.6290580587
   8.2066078000    7.7372646000   14.4014107573
   9.1184531000    9.0268087000   16.6290580587
  -3.6473816000   10.3163528000   14.4014107573
  -2.7355363000   11.6058969000   16.6290580587
  -0.9118456000   10.3163528000   14.4014107573
  -0.0000003000   11.6058969000   16.6290580587
   1.8236904000   10.3163528000   14.4014107573
   2.7355357000   11.6058969000   16.6290580587
   4.5592264000   10.3163528000   14.4014107573
   5.4710717000   11.6058969000   16.6290580587
   7.2947624000   10.3163528000   14.4014107573
   8.2066077000   11.6058969000   16.6290580587
   0.0000000000    0.0000000000   18.8608262391
   0.9118453000    1.2895441000   21.0937807331
   2.7355360000    0.0000000000   18.8608262391
   3.6473813000    1.2895441000   21.0937807331
   5.4710720000    0.0000000000   18.8608262391
   6.3829173000    1.2895441000   21.0937807331
   8.2066080000    0.0000000000   18.8608262391
   9.1184533000    1.2895441000   21.0937807331
  10.9421440000    0.0000000000   18.8608262391
  11.8539893000    1.2895441000   21.0937807331
  -0.9118454000    2.5790882000   18.8608262391
  -0.0000001000    3.8686323000   21.0937807331
   1.8236906000    2.5790882000   18.8608262391
   2.7355359000    3.8686323000   21.0937807331
   4.5592266000    2.5790882000   18.8608262391
   5.4710719000    3.8686323000   21.0937807331
   7.2947626000    2.5790882000   18.8608262391
   8.2066079000    3.8686323000   21.0937807331
  10.0302986000    2.5790882000   18.8608262391
  10.9421439000    3.8686323000   21.0937807331
  -1.8236908000    5.1581764000   18.8608262391
  -0.9118455000    6.4477205000   21.0937807331
   0.9118452000    5.1581764000   18.8608262391
   1.8236905000    6.4477205000   21.0937807331
   3.6473812000    5.1581764000   18.8608262391
   4.5592265000    6.4477205000   21.0937807331
   6.3829172000    5.1581764000   18.8608262391
   7.2947625000    6.4477205000   21.0937807331
   9.1184532000    5.1581764000   18.8608262391
  10.0302985000    6.4477205000   21.0937807331
  -2.7355362000    7.7372646000   18.8608262391
  -1.8236909000    9.0268087000   21.0937807331
  -0.0000002000    7.7372646000   18.8608262391
   0.9118451000    9.0268087000   21.0937807331
   2.7355358000    7.7372646000   18.8608262391
   3.6473811000    9.0268087000   21.0937807331
   5.4710718000    7.7372646000   18.8608262391
   6.3829171000    9.0268087000   21.0937807331
   8.2066078000    7.7372646000   18.8608262391
   9.1184531000    9.0268087000   21.0937807331
  -3.6473816000   10.3163528000   18.8608262391
  -2.7355363000   11.6058969000   21.0937807331
  -0.9118456000   10.3163528000   18.8608262391
  -0.0000003000   11.6058969000   21.0937807331
   1.8236904000   10.3163528000   18.8608262391
   2.7355357000   11.6058969000   21.0937807331
   4.5592264000   10.3163528000   18.8608262391
   5.4710717000   11.6058969000   21.0937807331
   7.2947624000   10.3163528000   18.8608262391
   8.2066077000   11.6058969000   21.0937807331
   0.0000000000    0.0000000000   23.3286083540
   0.9118453000    1.2895441000   25.5634359749
   2.7355360000    0.0000000000   23.3286083540
   3.6473813000    1.2895441000   25.5634359749
   5.4710720000    0.0000000000   23.3286083540
   6.3829173000    1.2895441000   25.5634359749
   8.2066080000    0.0000000000   23.3286083540
   9.1184533000    1.2895441000   25.5634359749
  10.9421440000    0.0000000000   23.3286083540
  11.8539893000    1.2895441000   25.5634359749
  -0.9118454000    2.5790882000   23.3286083540
  -0.0000001000    3.8686323000   25.5634359749
   1.8236906000    2.5790882000   23.3286083540
   2.7355359000    3.8686323000   25.5634359749
   4.5592266000    2.5790882000   23.3286083540
   5.4710719000    3.8686323000   25.5634359749
   7.2947626000    2.5790882000   23.3286083540
   8.2066079000    3.8686323000   25.5634359749
  10.0302986000    2.5790882000   23.3286083540
  10.9421439000    3.8686323000   25.5634359749
  -1.8236908000    5.1581764000   23.3286083540
  -0.9118455000    6.4477205000   25.5634359749
   0.9118452000    5.1581764000   23.3286083540
   1.8236905000    6.4477205000   25.5634359749
   3.6473812000    5.1581764000   23.3286083540
   4.5592265000    6.4477205000   25.5634359749
   6.3829172000    5.1581764000   23.3286083540
   7.2947625000    6.4477205000   25.5634359749
   9.1184532000    5.1581764000   23.3286083540
  10.0302985000    6.4477205000   25.5634359749
  -2.7355362000    7.7372646000   23.3286083540
  -1.8236909000    9.0268087000   25.5634359749
  -0.0000002000    7.7372646000   23.3286083540
   0.9118451000    9.0268087000   25.5634359749
   2.7355358000    7.7372646000   23.3286083540
   3.6473811000    9.0268087000   25.5634359749
   5.4710718000    7.7372646000   23.3286083540
   6.3829171000    9.0268087000   25.5634359749
   8.2066078000    7.7372646000   23.3286083540
   9.1184531000    9.0268087000   25.5634359749
  -3.6473816000   10.3163528000   23.3286083540
  -2.7355363000   11.6058969000   25.5634359749
  -0.9118456000   10.3163528000   23.3286083540
  -0.0000003000   11.6058969000   25.5634359749
   1.8236904000   10.3163528000   23.3286083540
   2.7355357000   11.6058969000   25.5634359749
   4.5592264000   10.3163528000   23.3286083540
   5.4710717000   11.6058969000   25.5634359749
   7.2947624000   10.3163528000   23.3286083540
   8.2066077000   11.6058969000   25.5634359749
   0.0000000000    0.0000000000   27.7882111484
   0.9118453000    1.2895441000   30.0129238844
   2.7355360000    0.0000000000   27.7882111484
   3.6473813000    1.2895441000   30.0129238844
   5.4710720000    0.0000000000   27.7882111484
   6.3829173000    1.2895441000   30.0129238844
   8.2066080000    0.0000000000   27.7882111484
   9.1184533000    1.2895441000   30.0129238844
  10.9421440000    0.0000000000   27.7882111484
  11.8539893000    1.2895441000   30.0129238844
  -0.9118454000    2.5790882000   27.7882111484
  -0.0000001000    3.8686323000   30.0129238844
   1.8236906000    2.5790882000   27.7882111484
   2.7355359000    3.8686323000   30.0129238844
   4.5592266000    2.5790882000   27.7882111484
   5.4710719000    3.8686323000   30.0129238844
   7.2947626000    2.5790882000   27.7882111484
   8.2066079000    3.8686323000   30.0129238844
  10.0302986000    2.5790882000   27.7882111484
  10.9421439000    3.8686323000   30.0129238844
  -1.8236908000    5.1581764000   27.7882111484
  -0.9118455000    6.4477205000   30.0129238844
   0.9118452000    5.1581764000   27.7882111484
   1.8236905000    6.4477205000   30.0129238844
   3.6473812000    5.1581764000   27.7882111484
   4.5592265000    6.4477205000   30.0129238844
   6.3829172000    5.1581764000   27.7882111484
   7.2947625000    6.4477205000   30.0129238844
   9.1184532000    5.1581764000   27.7882111484
  10.0302985000    6.4477205000   30.0129238844
  -2.7355362000    7.7372646000   27.7882111484
  -1.8236909000    9.0268087000   30.0129238844
  -0.0000002000    7.7372646000   27.7882111484
   0.9118451000    9.0268087000   30.0129238844
   2.7355358000    7.7372646000   27.7882111484
   3.6473811000    9.0268087000   30.0129238844
   5.4710718000    7.7372646000   27.7882111484
   6.3829171000    9.0268087000   30.0129238844
   8.2066078000    7.7372646000   27.7882111484
   9.1184531000    9.0268087000   30.0129238844
  -3.6473816000   10.3163528000   27.7882111484
  -2.7355363000   11.6058969000   30.0129238844
  -0.9118456000   10.3163528000   27.7882111484
  -0.0000003000   11.6058969000   30.0129238844
   1.8236904000   10.3163528000   27.7882111484
   2.7355357000   11.6058969000   30.0129238844
   4.5592264000   10.3163528000   27.7882111484
   5.4710717000   11.6058969000   30.0129238844
   7.2947624000   10.3163528000   27.7882111484
   8.2066077000   11.6058969000   30.0129238844
   1.5045448000    0.0000000000   32.4246371156
   2.4163901000    1.2895441000   34.6493498516
   4.2400808000    0.0000000000   32.4246371156
   5.1519261000    1.2895441000   34.6493498516
   6.9756168000    0.0000000000   32.4246371156
   7.8874621000    1.2895441000   34.6493498516
   9.7111528000    0.0000000000   32.4246371156
  10.6229981000    1.2895441000   34.6493498516
  12.4466888000    0.0000000000   32.4246371156
  -0.3191459000    1.2895441000   34.6493498516
   0.5926994000    2.5790882000   32.4246371156
   1.5045447000    3.8686323000   34.6493498516
   3.3282354000    2.5790882000   32.4246371156
   4.2400807000    3.8686323000   34.6493498516
   6.0637714000    2.5790882000   32.4246371156
   6.9756167000    3.8686323000   34.6493498516
   8.7993074000    2.5790882000   32.4246371156
   9.7111527000    3.8686323000   34.6493498516
  11.5348434000    2.5790882000   32.4246371156
  -1.2309913000    3.8686323000   34.6493498516
  -0.3191460000    5.1581764000   32.4246371156
   0.5926993000    6.4477205000   34.6493498516
   2.4163900000    5.1581764000   32.4246371156
   3.3282353000    6.4477205000   34.6493498516
   5.1519260000    5.1581764000   32.4246371156
   6.0637713000    6.4477205000   34.6493498516
   7.8874620000    5.1581764000   32.4246371156
   8.7993073000    6.4477205000   34.6493498516
  10.6229980000    5.1581764000   32.4246371156
  -2.1428367000    6.4477205000   34.6493498516
  -1.2309914000    7.7372646000   32.4246371156
  -0.3191461000    9.0268087000   34.6493498516
   1.5045446000    7.7372646000   32.4246371156
   2.4163899000    9.0268087000   34.6493498516
   4.2400806000    7.7372646000   32.4246371156
   5.1519259000    9.0268087000   34.6493498516
   6.9756166000    7.7372646000   32.4246371156
   7.8874619000    9.0268087000   34.6493498516
   9.7111526000    7.7372646000   32.4246371156
  -3.0546821000    9.0268087000   34.6493498516
  -2.1428368000   10.3163528000   32.4246371156
  -1.2309915000   11.6058969000   34.6493498516
   0.5926992000   10.3163528000   32.4246371156
   1.5045445000   11.6058969000   34.6493498516
   3.3282352000   10.3163528000   32.4246371156
   4.2400805000   11.6058969000   34.6493498516
   6.0637712000   10.3163528000   32.4246371156
   6.9756165000   11.6058969000   34.6493498516
   8.7993072000   10.3163528000   32.4246371156
  -3.9665275000   11.6058969000   34.6493498516
   1.5045448000    0.0000000000   36.8741250251
   2.4163901000    1.2895441000   39.1089526460
   4.2400808000    0.0000000000   36.8741250251
   5.1519261000    1.2895441000   39.1089526460
   6.9756168000    0.0000000000   36.8741250251
   7.8874621000    1.2895441000   39.1089526460
   9.7111528000    0.0000000000   36.8741250251
  10.6229981000    1.2895441000   39.1089526460
  12.4466888000    0.0000000000   36.8741250251
  -0.3191459000    1.2895441000   39.1089526460
   0.5926994000    2.5790882000   36.8741250251
   1.5045447000    3.8686323000   39.1089526460
   3.3282354000    2.5790882000   36.8741250251
   4.2400807000    3.8686323000   39.1089526460
   6.0637714000    2.5790882000   36.8741250251
   6.9756167000    3.8686323000   39.1089526460
   8.7993074000    2.5790882000   36.8741250251
   9.7111527000    3.8686323000   39.1089526460
  11.5348434000    2.5790882000   36.8741250251
  -1.2309913000    3.8686323000   39.1089526460
  -0.3191460000    5.1581764000   36.8741250251
   0.5926993000    6.4477205000   39.1089526460
   2.4163900000    5.1581764000   36.8741250251
   3.3282353000    6.4477205000   39.1089526460
   5.1519260000    5.1581764000   36.8741250251
   6.0637713000    6.4477205000   39.1089526460
   7.8874620000    5.1581764000   36.8741250251
   8.7993073000    6.4477205000   39.1089526460
  10.6229980000    5.1581764000   36.8741250251
  -2.1428367000    6.4477205000   39.1089526460
  -1.2309914000    7.7372646000   36.8741250251
  -0.3191461000    9.0268087000   39.1089526460
   1.5045446000    7.7372646000   36.8741250251
   2.4163899000    9.0268087000   39.1089526460
   4.2400806000    7.7372646000   36.8741250251
   5.1519259000    9.0268087000   39.1089526460
   6.9756166000    7.7372646000   36.8741250251
   7.8874619000    9.0268087000   39.1089526460
   9.7111526000    7.7372646000   36.8741250251
  -3.0546821000    9.0268087000   39.1089526460
  -2.1428368000   10.3163528000   36.8741250251
  -1.2309915000   11.6058969000   39.1089526460
   0.5926992000   10.3163528000   36.8741250251
   1.5045445000   11.6058969000   39.1089526460
   3.3282352000   10.3163528000   36.8741250251
   4.2400805000   11.6058969000   39.1089526460
   6.0637712000   10.3163528000   36.8741250251
   6.9756165000   11.6058969000   39.1089526460
   8.7993072000   10.3163528000   36.8741250251
  -3.9665275000   11.6058969000   39.1089526460
   1.5045448000    0.0000000000   41.3437802669
   2.4163901000    1.2895441000   43.5767347609
   4.2400808000    0.0000000000   41.3437802669
   5.1519261000    1.2895441000   43.5767347609
   6.9756168000    0.0000000000   41.3437802669
   7.8874621000    1.2895441000   43.5767347609
   9.7111528000    0.0000000000   41.3437802669
  10.6229981000    1.2895441000   43.5767347609
  12.4466888000    0.0000000000   41.3437802669
  -0.3191459000    1.2895441000   43.5767347609
   0.5926994000    2.5790882000   41.3437802669
   1.5045447000    3.8686323000   43.5767347609
   3.3282354000    2.5790882000   41.3437802669
   4.2400807000    3.8686323000   43.5767347609
   6.0637714000    2.5790882000   41.3437802669
   6.9756167000    3.8686323000   43.5767347609
   8.7993074000    2.5790882000   41.3437802669
   9.7111527000    3.8686323000   43.5767347609
  11.5348434000    2.5790882000   41.3437802669
  -1.2309913000    3.8686323000   43.5767347609
  -0.3191460000    5.1581764000   41.3437802669
   0.5926993000    6.4477205000   43.5767347609
   2.4163900000    5.1581764000   41.3437802669
   3.3282353000    6.4477205000   43.5767347609
   5.1519260000    5.1581764000   41.3437802669
   6.0637713000    6.4477205000   43.5767347609
   7.8874620000    5.1581764000   41.3437802669
   8.7993073000    6.4477205000   43.5767347609
  10.6229980000    5.1581764000   41.3437802669
  -2.1428367000    6.4477205000   43.5767347609
  -1.2309914000    7.7372646000   41.3437802669
  -0.3191461000    9.0268087000   43.5767347609
   1.5045446000    7.7372646000   41.3437802669
   2.4163899000    9.0268087000   43.5767347609
   4.2400806000    7.7372646000   41.3437802669
   5.1519259000    9.0268087000   43.5767347609
   6.9756166000    7.7372646000   41.3437802669
   7.8874619000    9.0268087000   43.5767347609
   9.7111526000    7.7372646000   41.3437802669
  -3.0546821000    9.0268087000   43.5767347609
  -2.1428368000   10.3163528000   41.3437802669
  -1.2309915000   11.6058969000   43.5767347609
   0.5926992000   10.3163528000   41.3437802669
   1.5045445000   11.6058969000   43.5767347609
   3.3282352000   10.3163528000   41.3437802669
   4.2400805000   11.6058969000   43.5767347609
   6.0637712000   10.3163528000   41.3437802669
   6.9756165000   11.6058969000   43.5767347609
   8.7993072000   10.3163528000   41.3437802669
  -3.9665275000   11.6058969000   43.5767347609
   1.5045448000    0.0000000000   45.8085029413
   2.4163901000    1.2895441000   48.0361502427
   4.2400808000    0.0000000000   45.8085029413
   5.1519261000    1.2895441000   48.0361502427
   6.9756168000    0.0000000000   45.8085029413
   7.8874621000    1.2895441000   48.0361502427
   9.7111528000    0.0000000000   45.8085029413
  10.6229981000    1.2895441000   48.0361502427
  12.4466888000    0.0000000000   45.8085029413
  -0.3191459000    1.2895441000   48.0361502427
   0.5926994000    2.5790882000   45.8085029413
   1.5045447000    3.8686323000   48.0361502427
   3.3282354000    2.5790882000   45.8085029413
   4.2400807000    3.8686323000   48.0361502427
   6.0637714000    2.5790882000   45.8085029413
   6.9756167000    3.8686323000   48.0361502427
   8.7993074000    2.5790882000   45.8085029413
   9.7111527000    3.8686323000   48.0361502427
  11.5348434000    2.5790882000   45.8085029413
  -1.2309913000    3.8686323000   48.0361502427
  -0.3191460000    5.1581764000   45.8085029413
   0.5926993000    6.4477205000   48.0361502427
   2.4163900000    5.1581764000   45.8085029413
   3.3282353000    6.4477205000   48.0361502427
   5.1519260000    5.1581764000   45.8085029413
   6.0637713000    6.4477205000   48.0361502427
   7.8874620000    5.1581764000   45.8085029413
   8.7993073000    6.4477205000   48.0361502427
  10.6229980000    5.1581764000   45.8085029413
  -2.1428367000    6.4477205000   48.0361502427
  -1.2309914000    7.7372646000   45.8085029413
  -0.3191461000    9.0268087000   48.0361502427
   1.5045446000    7.7372646000   45.8085029413
   2.4163899000    9.0268087000   48.0361502427
   4.2400806000    7.7372646000   45.8085029413
   5.1519259000    9.0268087000   48.0361502427
   6.9756166000    7.7372646000   45.8085029413
   7.8874619000    9.0268087000   48.0361502427
   9.7111526000    7.7372646000   45.8085029413
  -3.0546821000    9.0268087000   48.0361502427
  -2.1428368000   10.3163528000   45.8085029413
  -1.2309915000   11.6058969000   48.0361502427
   0.5926992000   10.3163528000   45.8085029413
   1.5045445000   11.6058969000   48.0361502427
   3.3282352000   10.3163528000   45.8085029413
   4.2400805000   11.6058969000   48.0361502427
   6.0637712000   10.3163528000   45.8085029413
   6.9756165000   11.6058969000   48.0361502427
   8.7993072000   10.3163528000   45.8085029413
  -3.9665275000   11.6058969000   48.0361502427
   1.5045448000    0.0000000000   50.2699788626
   2.4163901000    1.2895441000   52.3728759170
   4.2400808000    0.0000000000   50.2699788626
   5.1519261000    1.2895441000   52.3728759170
   6.9756168000    0.0000000000   50.2699788626
   7.8874621000    1.2895441000   52.3728759170
   9.7111528000    0.0000000000   50.2699788626
  10.6229981000    1.2895441000   52.3728759170
  12.4466888000    0.0000000000   50.2699788626
  -0.3191459000    1.2895441000   52.3728759170
   0.5926994000    2.5790882000   50.2699788626
   1.5045447000    3.8686323000   52.3728759170
   3.3282354000    2.5790882000   50.2699788626
   4.2400807000    3.8686323000   52.3728759170
   6.0637714000    2.5790882000   50.2699788626
   6.9756167000    3.8686323000   52.3728759170
   8.7993074000    2.5790882000   50.2699788626
   9.7111527000    3.8686323000   52.3728759170
  11.5348434000    2.5790882000   50.2699788626
  -1.2309913000    3.8686323000   52.3728759170
  -0.3191460000    5.1581764000   50.2699788626
   0.5926993000    6.4477205000   52.3728759170
   2.4163900000    5.1581764000   50.2699788626
   3.3282353000    6.4477205000   52.3728759170
   5.1519260000    5.1581764000   50.2699788626
   6.0637713000    6.4477205000   52.3728759170
   7.8874620000    5.1581764000   50.2699788626
   8.7993073000    6.4477205000   52.3728759170
  10.6229980000    5.1581764000   50.2699788626
  -2.1428367000    6.4477205000   52.3728759170
  -1.2309914000    7.7372646000   50.2699788626
  -0.3191461000    9.0268087000   52.3728759170
   1.5045446000    7.7372646000   50.2699788626
   2.4163899000    9.0268087000   52.3728759170
   4.2400806000    7.7372646000   50.2699788626
   5.1519259000    9.0268087000   52.3728759170
   6.9756166000    7.7372646000   50.2699788626
   7.8874619000    9.0268087000   52.3728759170
   9.7111526000    7.7372646000   50.2699788626
  -3.0546821000    9.0268087000   52.3728759170
  -2.1428368000   10.3163528000   50.2699788626
  -1.2309915000   11.6058969000   52.3728759170
   0.5926992000   10.3163528000   50.2699788626
   1.5045445000   11.6058969000   52.3728759170
   3.3282352000   10.3163528000   50.2699788626
   4.2400805000   11.6058969000   52.3728759170
   6.0637712000   10.3163528000   50.2699788626
   6.9756165000   11.6058969000   52.3728759170
   8.7993072000   10.3163528000   50.2699788626
  -3.9665275000   11.6058969000   52.3728759170
