Al1 
1.0
6.2510904478129614e-01 0.0000000000000000e+00 0.0000000000000000e+00 
8.7599597707006160e-01 2.2319600269443796e-02 0.0000000000000000e+00 
8.2278296275134177e-01 3.8799483550304068e-03 1.8371270941025968e-02 
Al 
1 
cartesian
   0.0000000000    0.0000000000    0.0000000000
