POSCAR file written by OVITO
1
6.8608518 0.0 0.0
-0.0495285 6.8298693 0.0
0.0024786 -0.1480964 6.7336512
H C 
4 1 
Cartesian
4.5418787 3.0061991 3.0896652
3.0382786 2.1957192 2.5766452
3.2008686 4.0155191 2.3484254
2.8919788 3.2131693 3.9740456
3.4361186 3.1285794 3.0005853
