H4 C1 
1.0
1.0256560185400000e+01 0.0000000000000000e+00 0.0000000000000000e+00 
-2.4531774970000000e-01 9.8128484190999998e+00 0.0000000000000000e+00 
-2.5710315189999999e-01 -3.0129123369999999e-01 9.8293471193999995e+00 
H C 
4 1 
Cartesian
   5.3475200000    4.1329900000    3.4240900000
   4.0099600000    5.0100700000    4.1737100000
   5.5891800000    5.0824200000    4.8661200000
   4.7052500000    3.5190100000    4.8860700000
   4.9222700000    4.4726500000    4.3767300000
