ATOMIC_SPECIES
H 1.00 H_ONCV_PBE-1.0.upf
C 1.00 C_ONCV_PBE-1.0.upf

LATTICE_CONSTANT
1.8897261254578281

LATTICE_VECTORS
10.2565601854 0.0 0.0 
-0.2453177497 9.8128484191 0.0 
-0.2571031519 -0.3012912337 9.8293471194 

ATOMIC_POSITIONS
Cartesian    # Cartesian(Unit is LATTICE_CONSTANT)
H
0.0
4
5.347520000000 4.132990000000 3.424090000000 0 0 0
4.009960000000 5.010070000000 4.173710000000 0 0 0
5.589180000000 5.082420000000 4.866120000000 0 0 0
4.705250000000 3.519010000000 4.886070000000 0 0 0
C
0.0
1
4.922270000000 4.472650000000 4.376730000000 0 0 0
