Al 
 1.0000000000000000
     4.0999999999999996    0.0000000000000000    0.0000000000000000
     0.0000000000000000    4.0999999999999996    0.0000000000000000
     0.0000000000000000    0.0000000000000000   12.7500000000000000
 Al 
  12
Cartesian
  0.0000000000000000  0.0000000000000000  5.3499999999999996
  2.0499999999999998  2.0499999999999998  1.2500000000000000
  2.0499999999999998  0.0000000000000000  7.3999999999999995
  2.0499999999999998  0.0000000000000000  3.2999999999999998
  0.0000000000000000  0.0000000000000000  1.2500000000000000
  0.0000000000000000  2.0499999999999998 11.5000000000000000
  2.0499999999999998  2.0499999999999998  5.3499999999999996
  0.0000000000000000  0.0000000000000000  9.4499999999999993
  2.0499999999999998  0.0000000000000000 11.5000000000000000
  0.0000000000000000  2.0499999999999998  7.3999999999999995
  2.0499999999999998  2.0499999999999998  9.4499999999999993
  0.0000000000000000  2.0499999999999998  3.2999999999999998
