Mo500 
1.0
1.3677680000000001e+01 0.0000000000000000e+00 0.0000000000000000e+00 
-4.5592269999999999e+00 1.2895441000000000e+01 0.0000000000000000e+00 
0.0000000000000000e+00 0.0000000000000000e+00 6.2437561000000002e+01 
Mo 
500 
Cartesian
   0.0000000000    0.0000000000   10.0676820859
   0.9118453000    1.2895441000   12.1706415779
   2.7355360000    0.0000000000   10.0676820859
   3.6473813000    1.2895441000   12.1706415779
   5.4710720000    0.0000000000   10.0676820859
   6.3829173000    1.2895441000   12.1706415779
   8.2066080000    0.0000000000   10.0676820859
   9.1184533000    1.2895441000   12.1706415779
  10.9421440000    0.0000000000   10.0676820859
  11.8539893000    1.2895441000   12.1706415779
  -0.9118454000    2.5790882000   10.0676820859
  -0.0000001000    3.8686323000   12.1706415779
   1.8236906000    2.5790882000   10.0676820859
   2.7355359000    3.8686323000   12.1706415779
   4.5592266000    2.5790882000   10.0676820859
   5.4710719000    3.8686323000   12.1706415779
   7.2947626000    2.5790882000   10.0676820859
   8.2066079000    3.8686323000   12.1706415779
  10.0302986000    2.5790882000   10.0676820859
  10.9421439000    3.8686323000   12.1706415779
  -1.8236908000    5.1581764000   10.0676820859
  -0.9118455000    6.4477205000   12.1706415779
   0.9118452000    5.1581764000   10.0676820859
   1.8236905000    6.4477205000   12.1706415779
   3.6473812000    5.1581764000   10.0676820859
   4.5592265000    6.4477205000   12.1706415779
   6.3829172000    5.1581764000   10.0676820859
   7.2947625000    6.4477205000   12.1706415779
   9.1184532000    5.1581764000   10.0676820859
  10.0302985000    6.4477205000   12.1706415779
  -2.7355362000    7.7372646000   10.0676820859
  -1.8236909000    9.0268087000   12.1706415779
  -0.0000002000    7.7372646000   10.0676820859
   0.9118451000    9.0268087000   12.1706415779
   2.7355358000    7.7372646000   10.0676820859
   3.6473811000    9.0268087000   12.1706415779
   5.4710718000    7.7372646000   10.0676820859
   6.3829171000    9.0268087000   12.1706415779
   8.2066078000    7.7372646000   10.0676820859
   9.1184531000    9.0268087000   12.1706415779
  -3.6473816000   10.3163528000   10.0676820859
  -2.7355363000   11.6058969000   12.1706415779
  -0.9118456000   10.3163528000   10.0676820859
  -0.0000003000   11.6058969000   12.1706415779
   1.8236904000   10.3163528000   10.0676820859
   2.7355357000   11.6058969000   12.1706415779
   4.5592264000   10.3163528000   10.0676820859
   5.4710717000   11.6058969000   12.1706415779
   7.2947624000   10.3163528000   10.0676820859
   8.2066077000   11.6058969000   12.1706415779
   0.0000000000    0.0000000000   14.4044701978
   0.9118453000    1.2895441000   16.6321174992
   2.7355360000    0.0000000000   14.4044701978
   3.6473813000    1.2895441000   16.6321174992
   5.4710720000    0.0000000000   14.4044701978
   6.3829173000    1.2895441000   16.6321174992
   8.2066080000    0.0000000000   14.4044701978
   9.1184533000    1.2895441000   16.6321174992
  10.9421440000    0.0000000000   14.4044701978
  11.8539893000    1.2895441000   16.6321174992
  -0.9118454000    2.5790882000   14.4044701978
  -0.0000001000    3.8686323000   16.6321174992
   1.8236906000    2.5790882000   14.4044701978
   2.7355359000    3.8686323000   16.6321174992
   4.5592266000    2.5790882000   14.4044701978
   5.4710719000    3.8686323000   16.6321174992
   7.2947626000    2.5790882000   14.4044701978
   8.2066079000    3.8686323000   16.6321174992
  10.0302986000    2.5790882000   14.4044701978
  10.9421439000    3.8686323000   16.6321174992
  -1.8236908000    5.1581764000   14.4044701978
  -0.9118455000    6.4477205000   16.6321174992
   0.9118452000    5.1581764000   14.4044701978
   1.8236905000    6.4477205000   16.6321174992
   3.6473812000    5.1581764000   14.4044701978
   4.5592265000    6.4477205000   16.6321174992
   6.3829172000    5.1581764000   14.4044701978
   7.2947625000    6.4477205000   16.6321174992
   9.1184532000    5.1581764000   14.4044701978
  10.0302985000    6.4477205000   16.6321174992
  -2.7355362000    7.7372646000   14.4044701978
  -1.8236909000    9.0268087000   16.6321174992
  -0.0000002000    7.7372646000   14.4044701978
   0.9118451000    9.0268087000   16.6321174992
   2.7355358000    7.7372646000   14.4044701978
   3.6473811000    9.0268087000   16.6321174992
   5.4710718000    7.7372646000   14.4044701978
   6.3829171000    9.0268087000   16.6321174992
   8.2066078000    7.7372646000   14.4044701978
   9.1184531000    9.0268087000   16.6321174992
  -3.6473816000   10.3163528000   14.4044701978
  -2.7355363000   11.6058969000   16.6321174992
  -0.9118456000   10.3163528000   14.4044701978
  -0.0000003000   11.6058969000   16.6321174992
   1.8236904000   10.3163528000   14.4044701978
   2.7355357000   11.6058969000   16.6321174992
   4.5592264000   10.3163528000   14.4044701978
   5.4710717000   11.6058969000   16.6321174992
   7.2947624000   10.3163528000   14.4044701978
   8.2066077000   11.6058969000   16.6321174992
   0.0000000000    0.0000000000   18.8638232420
   0.9118453000    1.2895441000   21.0967152985
   2.7355360000    0.0000000000   18.8638232420
   3.6473813000    1.2895441000   21.0967152985
   5.4710720000    0.0000000000   18.8638232420
   6.3829173000    1.2895441000   21.0967152985
   8.2066080000    0.0000000000   18.8638232420
   9.1184533000    1.2895441000   21.0967152985
  10.9421440000    0.0000000000   18.8638232420
  11.8539893000    1.2895441000   21.0967152985
  -0.9118454000    2.5790882000   18.8638232420
  -0.0000001000    3.8686323000   21.0967152985
   1.8236906000    2.5790882000   18.8638232420
   2.7355359000    3.8686323000   21.0967152985
   4.5592266000    2.5790882000   18.8638232420
   5.4710719000    3.8686323000   21.0967152985
   7.2947626000    2.5790882000   18.8638232420
   8.2066079000    3.8686323000   21.0967152985
  10.0302986000    2.5790882000   18.8638232420
  10.9421439000    3.8686323000   21.0967152985
  -1.8236908000    5.1581764000   18.8638232420
  -0.9118455000    6.4477205000   21.0967152985
   0.9118452000    5.1581764000   18.8638232420
   1.8236905000    6.4477205000   21.0967152985
   3.6473812000    5.1581764000   18.8638232420
   4.5592265000    6.4477205000   21.0967152985
   6.3829172000    5.1581764000   18.8638232420
   7.2947625000    6.4477205000   21.0967152985
   9.1184532000    5.1581764000   18.8638232420
  10.0302985000    6.4477205000   21.0967152985
  -2.7355362000    7.7372646000   18.8638232420
  -1.8236909000    9.0268087000   21.0967152985
  -0.0000002000    7.7372646000   18.8638232420
   0.9118451000    9.0268087000   21.0967152985
   2.7355358000    7.7372646000   18.8638232420
   3.6473811000    9.0268087000   21.0967152985
   5.4710718000    7.7372646000   18.8638232420
   6.3829171000    9.0268087000   21.0967152985
   8.2066078000    7.7372646000   18.8638232420
   9.1184531000    9.0268087000   21.0967152985
  -3.6473816000   10.3163528000   18.8638232420
  -2.7355363000   11.6058969000   21.0967152985
  -0.9118456000   10.3163528000   18.8638232420
  -0.0000003000   11.6058969000   21.0967152985
   1.8236904000   10.3163528000   18.8638232420
   2.7355357000   11.6058969000   21.0967152985
   4.5592264000   10.3163528000   18.8638232420
   5.4710717000   11.6058969000   21.0967152985
   7.2947624000   10.3163528000   18.8638232420
   8.2066077000   11.6058969000   21.0967152985
   0.0000000000    0.0000000000   23.3316053569
   0.9118453000    1.2895441000   25.5662456651
   2.7355360000    0.0000000000   23.3316053569
   3.6473813000    1.2895441000   25.5662456651
   5.4710720000    0.0000000000   23.3316053569
   6.3829173000    1.2895441000   25.5662456651
   8.2066080000    0.0000000000   23.3316053569
   9.1184533000    1.2895441000   25.5662456651
  10.9421440000    0.0000000000   23.3316053569
  11.8539893000    1.2895441000   25.5662456651
  -0.9118454000    2.5790882000   23.3316053569
  -0.0000001000    3.8686323000   25.5662456651
   1.8236906000    2.5790882000   23.3316053569
   2.7355359000    3.8686323000   25.5662456651
   4.5592266000    2.5790882000   23.3316053569
   5.4710719000    3.8686323000   25.5662456651
   7.2947626000    2.5790882000   23.3316053569
   8.2066079000    3.8686323000   25.5662456651
  10.0302986000    2.5790882000   23.3316053569
  10.9421439000    3.8686323000   25.5662456651
  -1.8236908000    5.1581764000   23.3316053569
  -0.9118455000    6.4477205000   25.5662456651
   0.9118452000    5.1581764000   23.3316053569
   1.8236905000    6.4477205000   25.5662456651
   3.6473812000    5.1581764000   23.3316053569
   4.5592265000    6.4477205000   25.5662456651
   6.3829172000    5.1581764000   23.3316053569
   7.2947625000    6.4477205000   25.5662456651
   9.1184532000    5.1581764000   23.3316053569
  10.0302985000    6.4477205000   25.5662456651
  -2.7355362000    7.7372646000   23.3316053569
  -1.8236909000    9.0268087000   25.5662456651
  -0.0000002000    7.7372646000   23.3316053569
   0.9118451000    9.0268087000   25.5662456651
   2.7355358000    7.7372646000   23.3316053569
   3.6473811000    9.0268087000   25.5662456651
   5.4710718000    7.7372646000   23.3316053569
   6.3829171000    9.0268087000   25.5662456651
   8.2066078000    7.7372646000   23.3316053569
   9.1184531000    9.0268087000   25.5662456651
  -3.6473816000   10.3163528000   23.3316053569
  -2.7355363000   11.6058969000   25.5662456651
  -0.9118456000   10.3163528000   23.3316053569
  -0.0000003000   11.6058969000   25.5662456651
   1.8236904000   10.3163528000   23.3316053569
   2.7355357000   11.6058969000   25.5662456651
   4.5592264000   10.3163528000   23.3316053569
   5.4710717000   11.6058969000   25.5662456651
   7.2947624000   10.3163528000   23.3316053569
   8.2066077000   11.6058969000   25.5662456651
   0.0000000000    0.0000000000   27.7902715879
   0.9118453000    1.2895441000   30.0143599483
   2.7355360000    0.0000000000   27.7902715879
   3.6473813000    1.2895441000   30.0143599483
   5.4710720000    0.0000000000   27.7902715879
   6.3829173000    1.2895441000   30.0143599483
   8.2066080000    0.0000000000   27.7902715879
   9.1184533000    1.2895441000   30.0143599483
  10.9421440000    0.0000000000   27.7902715879
  11.8539893000    1.2895441000   30.0143599483
  -0.9118454000    2.5790882000   27.7902715879
  -0.0000001000    3.8686323000   30.0143599483
   1.8236906000    2.5790882000   27.7902715879
   2.7355359000    3.8686323000   30.0143599483
   4.5592266000    2.5790882000   27.7902715879
   5.4710719000    3.8686323000   30.0143599483
   7.2947626000    2.5790882000   27.7902715879
   8.2066079000    3.8686323000   30.0143599483
  10.0302986000    2.5790882000   27.7902715879
  10.9421439000    3.8686323000   30.0143599483
  -1.8236908000    5.1581764000   27.7902715879
  -0.9118455000    6.4477205000   30.0143599483
   0.9118452000    5.1581764000   27.7902715879
   1.8236905000    6.4477205000   30.0143599483
   3.6473812000    5.1581764000   27.7902715879
   4.5592265000    6.4477205000   30.0143599483
   6.3829172000    5.1581764000   27.7902715879
   7.2947625000    6.4477205000   30.0143599483
   9.1184532000    5.1581764000   27.7902715879
  10.0302985000    6.4477205000   30.0143599483
  -2.7355362000    7.7372646000   27.7902715879
  -1.8236909000    9.0268087000   30.0143599483
  -0.0000002000    7.7372646000   27.7902715879
   0.9118451000    9.0268087000   30.0143599483
   2.7355358000    7.7372646000   27.7902715879
   3.6473811000    9.0268087000   30.0143599483
   5.4710718000    7.7372646000   27.7902715879
   6.3829171000    9.0268087000   30.0143599483
   8.2066078000    7.7372646000   27.7902715879
   9.1184531000    9.0268087000   30.0143599483
  -3.6473816000   10.3163528000   27.7902715879
  -2.7355363000   11.6058969000   30.0143599483
  -0.9118456000   10.3163528000   27.7902715879
  -0.0000003000   11.6058969000   30.0143599483
   1.8236904000   10.3163528000   27.7902715879
   2.7355357000   11.6058969000   30.0143599483
   4.5592264000   10.3163528000   27.7902715879
   5.4710717000   11.6058969000   30.0143599483
   7.2947624000   10.3163528000   27.7902715879
   8.2066077000   11.6058969000   30.0143599483
   1.0942144000    0.0000000000   32.4232010517
   2.0060597000    1.2895441000   34.6472894121
   3.8297504000    0.0000000000   32.4232010517
   4.7415957000    1.2895441000   34.6472894121
   6.5652864000    0.0000000000   32.4232010517
   7.4771317000    1.2895441000   34.6472894121
   9.3008224000    0.0000000000   32.4232010517
  10.2126677000    1.2895441000   34.6472894121
  12.0363584000    0.0000000000   32.4232010517
  12.9482037000    1.2895441000   34.6472894121
   0.1823690000    2.5790882000   32.4232010517
   1.0942143000    3.8686323000   34.6472894121
   2.9179050000    2.5790882000   32.4232010517
   3.8297503000    3.8686323000   34.6472894121
   5.6534410000    2.5790882000   32.4232010517
   6.5652863000    3.8686323000   34.6472894121
   8.3889770000    2.5790882000   32.4232010517
   9.3008223000    3.8686323000   34.6472894121
  11.1245130000    2.5790882000   32.4232010517
  12.0363583000    3.8686323000   34.6472894121
  -0.7294764000    5.1581764000   32.4232010517
   0.1823689000    6.4477205000   34.6472894121
   2.0060596000    5.1581764000   32.4232010517
   2.9179049000    6.4477205000   34.6472894121
   4.7415956000    5.1581764000   32.4232010517
   5.6534409000    6.4477205000   34.6472894121
   7.4771316000    5.1581764000   32.4232010517
   8.3889769000    6.4477205000   34.6472894121
  10.2126676000    5.1581764000   32.4232010517
  11.1245129000    6.4477205000   34.6472894121
  -1.6413218000    7.7372646000   32.4232010517
  -0.7294765000    9.0268087000   34.6472894121
   1.0942142000    7.7372646000   32.4232010517
   2.0060595000    9.0268087000   34.6472894121
   3.8297502000    7.7372646000   32.4232010517
   4.7415955000    9.0268087000   34.6472894121
   6.5652862000    7.7372646000   32.4232010517
   7.4771315000    9.0268087000   34.6472894121
   9.3008222000    7.7372646000   32.4232010517
  10.2126675000    9.0268087000   34.6472894121
  -2.5531672000   10.3163528000   32.4232010517
  -1.6413219000   11.6058969000   34.6472894121
   0.1823688000   10.3163528000   32.4232010517
   1.0942141000   11.6058969000   34.6472894121
   2.9179048000   10.3163528000   32.4232010517
   3.8297501000   11.6058969000   34.6472894121
   5.6534408000   10.3163528000   32.4232010517
   6.5652861000   11.6058969000   34.6472894121
   8.3889768000   10.3163528000   32.4232010517
   9.3008221000   11.6058969000   34.6472894121
   1.0942144000    0.0000000000   36.8713153349
   2.0060597000    1.2895441000   39.1059556431
   3.8297504000    0.0000000000   36.8713153349
   4.7415957000    1.2895441000   39.1059556431
   6.5652864000    0.0000000000   36.8713153349
   7.4771317000    1.2895441000   39.1059556431
   9.3008224000    0.0000000000   36.8713153349
  10.2126677000    1.2895441000   39.1059556431
  12.0363584000    0.0000000000   36.8713153349
  12.9482037000    1.2895441000   39.1059556431
   0.1823690000    2.5790882000   36.8713153349
   1.0942143000    3.8686323000   39.1059556431
   2.9179050000    2.5790882000   36.8713153349
   3.8297503000    3.8686323000   39.1059556431
   5.6534410000    2.5790882000   36.8713153349
   6.5652863000    3.8686323000   39.1059556431
   8.3889770000    2.5790882000   36.8713153349
   9.3008223000    3.8686323000   39.1059556431
  11.1245130000    2.5790882000   36.8713153349
  12.0363583000    3.8686323000   39.1059556431
  -0.7294764000    5.1581764000   36.8713153349
   0.1823689000    6.4477205000   39.1059556431
   2.0060596000    5.1581764000   36.8713153349
   2.9179049000    6.4477205000   39.1059556431
   4.7415956000    5.1581764000   36.8713153349
   5.6534409000    6.4477205000   39.1059556431
   7.4771316000    5.1581764000   36.8713153349
   8.3889769000    6.4477205000   39.1059556431
  10.2126676000    5.1581764000   36.8713153349
  11.1245129000    6.4477205000   39.1059556431
  -1.6413218000    7.7372646000   36.8713153349
  -0.7294765000    9.0268087000   39.1059556431
   1.0942142000    7.7372646000   36.8713153349
   2.0060595000    9.0268087000   39.1059556431
   3.8297502000    7.7372646000   36.8713153349
   4.7415955000    9.0268087000   39.1059556431
   6.5652862000    7.7372646000   36.8713153349
   7.4771315000    9.0268087000   39.1059556431
   9.3008222000    7.7372646000   36.8713153349
  10.2126675000    9.0268087000   39.1059556431
  -2.5531672000   10.3163528000   36.8713153349
  -1.6413219000   11.6058969000   39.1059556431
   0.1823688000   10.3163528000   36.8713153349
   1.0942141000   11.6058969000   39.1059556431
   2.9179048000   10.3163528000   36.8713153349
   3.8297501000   11.6058969000   39.1059556431
   5.6534408000   10.3163528000   36.8713153349
   6.5652861000   11.6058969000   39.1059556431
   8.3889768000   10.3163528000   36.8713153349
   9.3008221000   11.6058969000   39.1059556431
   1.0942144000    0.0000000000   41.3408457015
   2.0060597000    1.2895441000   43.5737377580
   3.8297504000    0.0000000000   41.3408457015
   4.7415957000    1.2895441000   43.5737377580
   6.5652864000    0.0000000000   41.3408457015
   7.4771317000    1.2895441000   43.5737377580
   9.3008224000    0.0000000000   41.3408457015
  10.2126677000    1.2895441000   43.5737377580
  12.0363584000    0.0000000000   41.3408457015
  12.9482037000    1.2895441000   43.5737377580
   0.1823690000    2.5790882000   41.3408457015
   1.0942143000    3.8686323000   43.5737377580
   2.9179050000    2.5790882000   41.3408457015
   3.8297503000    3.8686323000   43.5737377580
   5.6534410000    2.5790882000   41.3408457015
   6.5652863000    3.8686323000   43.5737377580
   8.3889770000    2.5790882000   41.3408457015
   9.3008223000    3.8686323000   43.5737377580
  11.1245130000    2.5790882000   41.3408457015
  12.0363583000    3.8686323000   43.5737377580
  -0.7294764000    5.1581764000   41.3408457015
   0.1823689000    6.4477205000   43.5737377580
   2.0060596000    5.1581764000   41.3408457015
   2.9179049000    6.4477205000   43.5737377580
   4.7415956000    5.1581764000   41.3408457015
   5.6534409000    6.4477205000   43.5737377580
   7.4771316000    5.1581764000   41.3408457015
   8.3889769000    6.4477205000   43.5737377580
  10.2126676000    5.1581764000   41.3408457015
  11.1245129000    6.4477205000   43.5737377580
  -1.6413218000    7.7372646000   41.3408457015
  -0.7294765000    9.0268087000   43.5737377580
   1.0942142000    7.7372646000   41.3408457015
   2.0060595000    9.0268087000   43.5737377580
   3.8297502000    7.7372646000   41.3408457015
   4.7415955000    9.0268087000   43.5737377580
   6.5652862000    7.7372646000   41.3408457015
   7.4771315000    9.0268087000   43.5737377580
   9.3008222000    7.7372646000   41.3408457015
  10.2126675000    9.0268087000   43.5737377580
  -2.5531672000   10.3163528000   41.3408457015
  -1.6413219000   11.6058969000   43.5737377580
   0.1823688000   10.3163528000   41.3408457015
   1.0942141000   11.6058969000   43.5737377580
   2.9179048000   10.3163528000   41.3408457015
   3.8297501000   11.6058969000   43.5737377580
   5.6534408000   10.3163528000   41.3408457015
   6.5652861000   11.6058969000   43.5737377580
   8.3889768000   10.3163528000   41.3408457015
   9.3008221000   11.6058969000   43.5737377580
   1.0942144000    0.0000000000   45.8054435008
   2.0060597000    1.2895441000   48.0330908022
   3.8297504000    0.0000000000   45.8054435008
   4.7415957000    1.2895441000   48.0330908022
   6.5652864000    0.0000000000   45.8054435008
   7.4771317000    1.2895441000   48.0330908022
   9.3008224000    0.0000000000   45.8054435008
  10.2126677000    1.2895441000   48.0330908022
  12.0363584000    0.0000000000   45.8054435008
  12.9482037000    1.2895441000   48.0330908022
   0.1823690000    2.5790882000   45.8054435008
   1.0942143000    3.8686323000   48.0330908022
   2.9179050000    2.5790882000   45.8054435008
   3.8297503000    3.8686323000   48.0330908022
   5.6534410000    2.5790882000   45.8054435008
   6.5652863000    3.8686323000   48.0330908022
   8.3889770000    2.5790882000   45.8054435008
   9.3008223000    3.8686323000   48.0330908022
  11.1245130000    2.5790882000   45.8054435008
  12.0363583000    3.8686323000   48.0330908022
  -0.7294764000    5.1581764000   45.8054435008
   0.1823689000    6.4477205000   48.0330908022
   2.0060596000    5.1581764000   45.8054435008
   2.9179049000    6.4477205000   48.0330908022
   4.7415956000    5.1581764000   45.8054435008
   5.6534409000    6.4477205000   48.0330908022
   7.4771316000    5.1581764000   45.8054435008
   8.3889769000    6.4477205000   48.0330908022
  10.2126676000    5.1581764000   45.8054435008
  11.1245129000    6.4477205000   48.0330908022
  -1.6413218000    7.7372646000   45.8054435008
  -0.7294765000    9.0268087000   48.0330908022
   1.0942142000    7.7372646000   45.8054435008
   2.0060595000    9.0268087000   48.0330908022
   3.8297502000    7.7372646000   45.8054435008
   4.7415955000    9.0268087000   48.0330908022
   6.5652862000    7.7372646000   45.8054435008
   7.4771315000    9.0268087000   48.0330908022
   9.3008222000    7.7372646000   45.8054435008
  10.2126675000    9.0268087000   48.0330908022
  -2.5531672000   10.3163528000   45.8054435008
  -1.6413219000   11.6058969000   48.0330908022
   0.1823688000   10.3163528000   45.8054435008
   1.0942141000   11.6058969000   48.0330908022
   2.9179048000   10.3163528000   45.8054435008
   3.8297501000   11.6058969000   48.0330908022
   5.6534408000   10.3163528000   45.8054435008
   6.5652861000   11.6058969000   48.0330908022
   8.3889768000   10.3163528000   45.8054435008
   9.3008221000   11.6058969000   48.0330908022
   1.0942144000    0.0000000000   50.2669194221
   2.0060597000    1.2895441000   52.3698789141
   3.8297504000    0.0000000000   50.2669194221
   4.7415957000    1.2895441000   52.3698789141
   6.5652864000    0.0000000000   50.2669194221
   7.4771317000    1.2895441000   52.3698789141
   9.3008224000    0.0000000000   50.2669194221
  10.2126677000    1.2895441000   52.3698789141
  12.0363584000    0.0000000000   50.2669194221
  12.9482037000    1.2895441000   52.3698789141
   0.1823690000    2.5790882000   50.2669194221
   1.0942143000    3.8686323000   52.3698789141
   2.9179050000    2.5790882000   50.2669194221
   3.8297503000    3.8686323000   52.3698789141
   5.6534410000    2.5790882000   50.2669194221
   6.5652863000    3.8686323000   52.3698789141
   8.3889770000    2.5790882000   50.2669194221
   9.3008223000    3.8686323000   52.3698789141
  11.1245130000    2.5790882000   50.2669194221
  12.0363583000    3.8686323000   52.3698789141
  -0.7294764000    5.1581764000   50.2669194221
   0.1823689000    6.4477205000   52.3698789141
   2.0060596000    5.1581764000   50.2669194221
   2.9179049000    6.4477205000   52.3698789141
   4.7415956000    5.1581764000   50.2669194221
   5.6534409000    6.4477205000   52.3698789141
   7.4771316000    5.1581764000   50.2669194221
   8.3889769000    6.4477205000   52.3698789141
  10.2126676000    5.1581764000   50.2669194221
  11.1245129000    6.4477205000   52.3698789141
  -1.6413218000    7.7372646000   50.2669194221
  -0.7294765000    9.0268087000   52.3698789141
   1.0942142000    7.7372646000   50.2669194221
   2.0060595000    9.0268087000   52.3698789141
   3.8297502000    7.7372646000   50.2669194221
   4.7415955000    9.0268087000   52.3698789141
   6.5652862000    7.7372646000   50.2669194221
   7.4771315000    9.0268087000   52.3698789141
   9.3008222000    7.7372646000   50.2669194221
  10.2126675000    9.0268087000   52.3698789141
  -2.5531672000   10.3163528000   50.2669194221
  -1.6413219000   11.6058969000   52.3698789141
   0.1823688000   10.3163528000   50.2669194221
   1.0942141000   11.6058969000   52.3698789141
   2.9179048000   10.3163528000   50.2669194221
   3.8297501000   11.6058969000   52.3698789141
   5.6534408000   10.3163528000   50.2669194221
   6.5652861000   11.6058969000   52.3698789141
   8.3889768000   10.3163528000   50.2669194221
   9.3008221000   11.6058969000   52.3698789141
