Mo2
1.0
3.158725 0.000000 0.000000
0.000000 3.158725 0.000000
0.000000 -0.000000 3.158725
Mo
2
direct
0.000000 0.000000 0.000000 Mo
0.500000 0.500000 0.500000 Mo
