Mo2 
1.0
3.1587253377110205e+00 0.0000000000000000e+00 0.0000000000000000e+00 
1.1072660043747342e-17 3.1587253377110205e+00 0.0000000000000000e+00 
4.6681505608207812e-18 -7.8824732097557700e-18 3.1587253377110205e+00 
Mo 
2 
Cartesian
   0.0000000000    0.0000000000    0.0000000000
   1.5793626689    1.5793626689    1.5793626689
