POSCAR file written by OVITO
1
12.7150469 0.0 0.0
-0.3249891 12.7531929 0.0
-0.1673704 -0.3295626 12.1935711
H C 
4 1 
Cartesian
7.2731848 5.7970619 5.4447541
5.8035746 6.4049921 6.3148441
5.7170449 4.8346825 5.5567541
5.8701344 6.206172 4.4453345
6.1750145 5.8112526 5.4235444
