Al1 
1.0
8.9117435342322038e-01 0.0000000000000000e+00 0.0000000000000000e+00 
6.3409939955121208e-01 1.9968611983052557e-02 0.0000000000000000e+00 
5.0895483976207867e-01 6.3684100723567965e-03 8.3841132142836797e-03 
Al 
1 
cartesian
   0.0000000000    0.0000000000    0.0000000000
