&GLOBAL
PROJECT DPGEN
&END GLOBAL
&FORCE_EVAL
METHOD QS
STRESS_TENSOR ANALYTICAL
&DFT
BASIS_SET_FILE_NAME ./cp2k_basis_pp_file/BASIS_MOLOPT
POTENTIAL_FILE_NAME ./cp2k_basis_pp_file/GTH_POTENTIALS
CHARGE 0
UKS F
MULTIPLICITY 1
&MGRID
CUTOFF 400
REL_CUTOFF 50
NGRIDS 4
&END MGRID
&QS
EPS_DEFAULT 1.0E-12
&END QS
&SCF
SCF_GUESS ATOMIC
EPS_SCF 1.0E-6
MAX_SCF 50
&OT
MINIMIZER DIIS
PRECONDITIONER FULL_SINGLE_INVERSE
&END OT
&END SCF
&XC
&XC_FUNCTIONAL PBE
&END XC_FUNCTIONAL
&END XC
&END DFT
&SUBSYS
&CELL
&END CELL
&COORD
@include coord.xyz
&END COORD
&KIND H
BASIS_SET DZVP-MOLOPT-GTH
POTENTIAL GTH-PBE-q1
&END KIND
&KIND C
BASIS_SET DZVP-MOLOPT-GTH
POTENTIAL GTH-PBE-q4
&END KIND
&KIND N
BASIS_SET DZVP-MOLOPT-GTH
POTENTIAL GTH-PBE-q5
&END KIND
&END SUBSYS
&PRINT
&FORCES ON
&END FORCES
&STRESS_TENSOR ON
&END STRESS_TENSOR
&END PRINT
&END FORCE_EVAL
