&GLOBAL
  PROJECT DPGEN
&END GLOBAL
&FORCE_EVAL
  METHOD QS
  STRESS_TENSOR ANALYTICAL
  &DFT #FORCE_EVAL
    BASIS_SET_FILE_NAME ./cp2k_basis_pp_file/BASIS_MOLOPT
    POTENTIAL_FILE_NAME ./cp2k_basis_pp_file/GTH_POTENTIALS
    CHARGE 0
    UKS F
    MULTIPLICITY 1
    &MGRID #DFT #FORCE_EVAL
      CUTOFF 400
      REL_CUTOFF 50
      NGRIDS 4
    &END MGRID #DFT #FORCE_EVAL
    &QS #DFT #FORCE_EVAL
      EPS_DEFAULT 1.0E-12
    &END QS #DFT #FORCE_EVAL
    &SCF #DFT #FORCE_EVAL
      SCF_GUESS ATOMIC
      EPS_SCF 1.0E-6
      MAX_SCF 50
      &OT #SCF #DFT #FORCE_EVAL
        MINIMIZER DIIS
        PRECONDITIONER FULL_SINGLE_INVERSE
      &END OT #SCF #DFT #FORCE_EVAL
    &END SCF #DFT #FORCE_EVAL
    &XC #DFT #FORCE_EVAL
      &XC_FUNCTIONAL PBE
      &END XC_FUNCTIONAL #XC #DFT #FORCE_EVAL
    &END XC #DFT #FORCE_EVAL
  &END DFT #FORCE_EVAL
  &SUBSYS #FORCE_EVAL
    &CELL #SUBSYS #FORCE_EVAL
    &END CELL #SUBSYS #FORCE_EVAL
    &COORD #SUBSYS #FORCE_EVAL
      @include coord.xyz
    &END COORD #SUBSYS #FORCE_EVAL
    &KIND H
      BASIS_SET DZVP-MOLOPT-GTH
      POTENTIAL GTH-PBE-q1
    &END KIND #SUBSYS #FORCE_EVAL
    &KIND C
      BASIS_SET DZVP-MOLOPT-GTH
      POTENTIAL GTH-PBE-q4
    &END KIND #SUBSYS #FORCE_EVAL
    &KIND N
      BASIS_SET DZVP-MOLOPT-GTH
      POTENTIAL GTH-PBE-q5
    &END KIND #SUBSYS #FORCE_EVAL
  &END SUBSYS #FORCE_EVAL
  &PRINT #FORCE_EVAL
    &FORCES ON
    &END FORCES #PRINT #FORCE_EVAL
    &STRESS_TENSOR ON
    &END STRESS_TENSOR #PRINT #FORCE_EVAL
  &END PRINT #FORCE_EVAL
&END FORCE_EVAL