PREC=A
ENCUT=600
ISYM=0
ALGO=fast
EDIFF=1e-05
LREAL=A
NPAR=1
KPAR=1
NELMIN=4
ISIF=2
ISMEAR=1
SIGMA=0.25
IBRION=-1
NSW=0
LWAVE=F
LCHARG=F
PSTRESS=0
KSPACING=0.16
KGAMMA=F