Au15 
1.0
1.5554804000000001e+01 0.0000000000000000e+00 0.0000000000000000e+00 
0.0000000000000000e+00 2.4322239000000000e+01 0.0000000000000000e+00 
0.0000000000000000e+00 0.0000000000000000e+00 2.5838992999999999e+01 
Au 
15 
Cartesian
   7.8762400000   10.0812000000   14.6504000000
   6.9950700000   12.6185000000   15.4628000000
   9.0377100000    7.9299600000   13.6697000000
   7.8367500000   14.3453000000   11.2202000000
   7.8591200000    9.6232500000   11.9330000000
   8.0127400000   11.7326000000   10.3461000000
   8.7119300000   16.7455000000   12.2763000000
   7.3044900000   12.1303000000   12.8898000000
   7.8330300000    9.1298900000    9.3296200000
   7.2895200000   10.5876000000   17.1815000000
   7.8422900000   14.5862000000   13.9083000000
   8.1004700000   11.0637000000    7.6939600000
   7.9575400000   13.7615000000    8.6364600000
   7.3879900000   15.1202000000   16.5249000000
   6.6161400000   12.9611000000   18.0696000000
