Al1 
1.0
7.7714368902548037e-01 0.0000000000000000e+00 0.0000000000000000e+00 
5.1744302821750987e-01 9.2339899572028723e-03 0.0000000000000000e+00 
8.0249076087440185e-01 1.8781333828875989e-02 1.9301537101012855e-02 
Al 
1 
cartesian
   0.0000000000    0.0000000000    0.0000000000
