ATOMIC_SPECIES
Cu 63.550 Cu_ONCV_PBE-1.0.upf
W 183.800 W_ONCV_PBE-1.0.upf

LATTICE_CONSTANT
1.8897261254578281

LATTICE_VECTORS
3.695772042195169 0.0 0.0 
0.02787179962278776 3.706145256124852 0.0 
0.023777891607350044 -0.004536486956558194 3.691328902163106 

ATOMIC_POSITIONS
Cartesian    # Cartesian(Unit is LATTICE_CONSTANT)
Cu
0.0
2
0.011587571256 1.863284404621 1.858063253153 1 1 1
1.864591289002 -0.010973333653 1.853314363244 1 1 1
W
0.0
2
1.867709072226 1.858979499472 0.001271697985 1 1 1
0.000911060636 0.002042999192 -0.001432103589 1 1 1
