 H  C 
 1.0000000000000000
     9.7763126571808332    0.0000000000000000    0.0000000000000000
    -0.2585150278537765   10.2786812522561064    0.0000000000000000
     0.1911747821328827    0.2642493505252250    9.7383599428981888
   H   C
   4   1
Cartesian
  5.2076014136825313  4.2625219023044449  3.5037671727515334
  3.8000173121287077  5.0753150413624661  4.3091108663924258
  5.3782836648044174  5.9186124609185473  4.3113644861731446
  5.1667431275349811  4.4013735665594895  5.2251172700934010
  4.8718982771912884  4.9376276907667700  4.3241408938134622
