P16
1.0
8.8051536400000000e+00 0.0000000000000000e+00 0.0000000000000000e+00
0.0000000000000000e+00 6.5802993500000000e+00 0.0000000000000000e+00
0.0000000000000000e+00 0.0000000000000000e+00 2.1819520480000000e+01
P
16
Cartesian
   0.0047932879    0.0329221655   12.1379214560
   1.4920806296    1.6779599686   12.1379256454
   2.2061033938    1.6779553229   10.0134938897
   3.6933908587    0.0329258241   10.0134877584
   4.4073895408    0.0329264690   12.1379193395
   5.8946802725    1.6779594027   12.1379136883
   6.6086281312    1.6779562836   10.0134764995
   8.0959086049    0.0329227774   10.0134900713
   0.0048354294    3.3230308180   12.1379111354
   1.4920256238    4.9681445314   12.1379043059
   2.2061652764    4.9681443340   10.0134972717
   3.6933414794    3.3230264750   10.0134912277
   4.4074328798    3.3230248628   12.1379032804
   5.8946135118    4.9681435707   12.1379085170
   6.6086811470    4.9681455908   10.0134957444
   8.0958607312    3.3230316405   10.0134979045
