PSiO2 70 atoms
1.0
9.712 0.0   0.0
0.0   7.284 0.0
0.0   0.0   25.0
Si  O   P
18  36  16
Cartesian
0.0  2.280860772  8.54401772
2.5751368  1.287570828  6.77198228
2.2808631999999998  3.7155684  5.0
0.0  7.1368632  8.54401772
2.5751368  6.143565971999999  6.77198228
7.1368632  1.287570828  5.0
4.856  4.708865628  8.54401772
7.4311368  3.7155684  6.77198228
7.1368632  6.143565971999999  5.0
0.0  2.280860772  13.86001772
2.5751368  1.287570828  12.087982279999999
2.2808631999999998  3.7155684  10.315999999999999
0.0  7.1368632  13.86001772
2.5751368  6.143565971999999  12.087982279999999
7.1368632  1.287570828  10.315999999999999
4.856  4.708865628  13.86001772
7.4311368  3.7155684  12.087982279999999
7.1368632  6.143565971999999  10.315999999999999
2.0069848  0.2940310428  5.6315408
4.1465384  0.7757459999999999  7.403523079999999
1.2975231999999999  1.358225628  7.91247692
0.7094616  3.2037435719999996  9.6844592
2.8490151999999997  2.7220307999999998  6.14044148
5.565461599999999  0.7757459999999999  9.6844592
7.7050152  0.2940310428  6.14044148
2.0069848  5.150028372  5.6315408
3.5584767999999998  3.7862232000000002  9.17555852
4.1465384  5.631748428  7.403523079999999
1.2975231999999999  6.214220772  7.91247692
6.8629847999999996  2.7220307999999998  5.6315408
8.4144768  1.358225628  9.17555852
9.0025384  3.2037435719999996  7.403523079999999
6.1535232  3.7862232000000002  7.91247692
5.565461599999999  5.631748428  9.6844592
7.7050152  5.150028372  6.14044148
8.4144768  6.214220772  9.17555852
2.0069848  0.2940310428  10.947540799999999
4.1465384  0.7757459999999999  12.719523079999998
1.2975231999999999  1.358225628  13.22847692
0.7094616  3.2037435719999996  15.0004592
2.8490151999999997  2.7220307999999998  11.45644148
5.565461599999999  0.7757459999999999  15.0004592
7.7050152  0.2940310428  11.45644148
2.0069848  5.150028372  10.947540799999999
3.5584767999999998  3.7862232000000002  14.49155852
4.1465384  5.631748428  12.719523079999998
1.2975231999999999  6.214220772  13.22847692
6.8629847999999996  2.7220307999999998  10.947540799999999
8.4144768  1.358225628  14.49155852
9.0025384  3.2037435719999996  12.719523079999998
6.1535232  3.7862232000000002  13.22847692
5.565461599999999  5.631748428  15.0004592
7.7050152  5.150028372  11.45644148
8.4144768  6.214220772  14.49155852
0.00476347936058176  0.0329022524829  18.956790026599506
1.492078463890618  1.6780148766279  18.956795481599528
2.2060016312005817  1.6780148766279  16.83262392826639
3.6933254206832253  0.0329022524829  16.83262392826639
4.407239783040581  0.0329022524829  18.956790026599506
5.894554767570618  1.6780148766279  18.956795481599528
6.608477934880581  1.6780148766279  16.83262392826639
8.095801724363225  0.0329022524829  16.83262392826639
0.00476347936058176  3.3231275007728995  18.956790026599506
1.492078463890618  4.9682401249179  18.956795481599528
2.2060016312005817  4.9682401249179  16.83262392826639
3.6933254206832253  3.3231275007728995  16.83262392826639
4.407239783040581  3.3231275007728995  18.956790026599506
5.894554767570618  4.9682401249179  18.956795481599528
6.608477934880581  4.9682401249179  16.83262392826639
8.095801724363225  3.3231275007728995  16.83262392826639
