Al1 
1.0
7.1318152793059453e-01 0.0000000000000000e+00 0.0000000000000000e+00 
9.0090250362408364e-01 2.2057413311066729e-02 0.0000000000000000e+00 
5.9568260849887056e-01 1.8603698586820437e-04 1.4346759150138591e-02 
Al 
1 
cartesian
   0.0000000000    0.0000000000    0.0000000000
