POSCAR file written by OVITO
1
10.490304 0.0 0.0
-0.0679498 10.915804 0.0
0.2990183 0.278427 10.58564
H C 
4 1 
Cartesian
4.4608116 5.8662834 4.539629
6.3641319 5.7371235 4.6838689
5.397502 4.5488434 3.8755388
5.2564616 4.7089534 5.6835289
5.3860517 5.2256837 4.7164388
