POSCAR file written by OVITO
1
9.474329 0.0 0.0
0.1083883 9.6150007 0.0
0.2407192 -0.2213783 9.3255844
H C 
4 1 
Cartesian
3.8367706 4.4558535 4.0932174
5.3349404 4.8592034 3.2180772
5.1675005 3.3862233 4.2485972
5.2753606 4.9696436 5.0075173
4.9339706 4.3854132 4.1548872
