 H  C 
 1.0000000000000000
    10.1895280462022537    0.0000000000000000    0.0000000000000000
     0.0344263797781620    9.9549756604960731    0.0000000000000000
    -0.0094448970645276    0.0855269577316564    9.8748578516334415
   H   C
   4   1
Cartesian
  5.4803976495457558  4.0650591268005245  3.5532940336387666
  4.0094602752832040  4.8463387768469079  4.3663362082581045
  5.6905442872772856  5.6639818663221755  4.3739129246873167
  5.3921952370826567  4.1707651295221568  5.3016096713290191
  5.1265532466432973  4.7055626336186949  4.3853141076980018
