 H  C 
 1.0000000000000000
    10.2143907621030241    0.0000000000000000    0.0000000000000000
    -0.2565058657664389   10.0347534733191317    0.0000000000000000
    -0.2179226265927020   -0.1246231299107283   10.2858115498642899
   H   C
   4   1
Cartesian
  5.2953599395375344  4.0248170942489230  3.6967745466924908
  3.7902359221991646  4.7881503230984315  4.5509131794266953
  5.4409266071024165  5.6146139418246337  4.5573170663874345
  5.1777238494298450  4.0913839734359456  5.5207799668997408
  4.9040442183817294  4.6566493543366940  4.5653225928573038
