POSCAR file written by OVITO
1
10.2097035 0.0 0.0
7.2140894e-05 10.0169706 0.0
0.065412 -0.1022526 10.3624001
H C 
4 1 
Cartesian
5.3215943 4.4966431 3.5491929
4.4045744 3.9204032 4.8399826
4.7964144 5.6597929 4.6513424
5.9847646 4.5180831 5.2982726
5.1809044 4.631033 4.6217227
