 H  C 
 1.0000000000000000
     9.7710922340175710    0.0000000000000000    0.0000000000000000
    -0.1336940647578211    9.8585628455415080    0.0000000000000000
    -0.0576645647450449    0.0552945129853800    9.9297532615051072
   H   C
   4   1
Cartesian
  5.1630057132795892  4.0126183297656173  3.5687249277269206
  3.7427424349237275  4.7866965427217316  4.3884431338949010
  5.3354050637970696  5.6013171549586440  4.3948266885651339
  5.0803379456355948  4.1152971727574945  5.3281225493292039
  4.8110149559287674  4.6457521788078537  4.4019267153181216
