ATOMIC_SPECIES
Al 26 ./pp_orb/Al_ONCV_PBE-1.0.upf

NUMERICAL_ORBITAL
./pp_orb/Al_gga_9au_100Ry_4s4p1d.orb

LATTICE_CONSTANT
1.8897261246257702

LATTICE_VECTORS
2.842522783672818 0.0 0.0 
0.0 4.9233938829934365 0.0 
0.0 0.0 77.30639388826252 

ATOMIC_POSITIONS
Cartesian    # Cartesian(Unit is LATTICE_CONSTANT)
Al
0.0
60
0.000000000000 0.000000000000 5.000000000000 1 1 1
1.421261391836 0.820565647166 7.320910134078 1 1 1
1.421261391836 2.461696941497 5.000000000000 1 1 1
0.000000000000 1.641131294331 9.641820268156 1 1 1
0.000000000000 3.282262588662 7.320910134078 1 1 1
1.421261391836 4.102828235828 9.641820268156 1 1 1
0.000000000000 0.000000000000 11.962730402234 1 1 1
1.421261391836 0.820565647166 14.283640536312 1 1 1
1.421261391836 2.461696941497 11.962730402234 1 1 1
0.000000000000 1.641131294331 16.604550670390 1 1 1
0.000000000000 3.282262588662 14.283640536312 1 1 1
1.421261391836 4.102828235828 16.604550670390 1 1 1
0.000000000000 0.000000000000 18.925460804468 1 1 1
1.421261391836 0.820565647166 21.246370938546 1 1 1
1.421261391836 2.461696941497 18.925460804468 1 1 1
0.000000000000 1.641131294331 23.567281072624 1 1 1
0.000000000000 3.282262588662 21.246370938546 1 1 1
1.421261391836 4.102828235828 23.567281072624 1 1 1
0.000000000000 0.000000000000 25.888191206702 1 1 1
1.421261391836 0.820565647166 28.209101340780 1 1 1
1.421261391836 2.461696941497 25.888191206702 1 1 1
0.000000000000 1.641131294331 30.530011474858 1 1 1
0.000000000000 3.282262588662 28.209101340780 1 1 1
1.421261391836 4.102828235828 30.530011474858 1 1 1
0.000000000000 0.000000000000 32.850921608936 1 1 1
1.421261391836 0.820565647166 35.171831743014 1 1 1
1.421261391836 2.461696941497 32.850921608936 1 1 1
0.000000000000 1.641131294331 37.492741877092 1 1 1
0.000000000000 3.282262588662 35.171831743014 1 1 1
1.421261391836 4.102828235828 37.492741877092 1 1 1
0.994882974285 0.000000000000 39.813652011170 1 1 1
2.416144366122 0.820565647166 42.134562145248 1 1 1
2.416144366122 2.461696941497 39.813652011170 1 1 1
0.994882974285 1.641131294331 44.455472279326 1 1 1
0.994882974285 3.282262588662 42.134562145248 1 1 1
2.416144366122 4.102828235828 44.455472279326 1 1 1
0.994882974285 0.000000000000 46.776382413404 1 1 1
2.416144366122 0.820565647166 49.097292547482 1 1 1
2.416144366122 2.461696941497 46.776382413404 1 1 1
0.994882974285 1.641131294331 51.418202681560 1 1 1
0.994882974285 3.282262588662 49.097292547482 1 1 1
2.416144366122 4.102828235828 51.418202681560 1 1 1
0.994882974285 0.000000000000 53.739112815638 1 1 1
2.416144366122 0.820565647166 56.060022949716 1 1 1
2.416144366122 2.461696941497 53.739112815638 1 1 1
0.994882974285 1.641131294331 58.380933083794 1 1 1
0.994882974285 3.282262588662 56.060022949716 1 1 1
2.416144366122 4.102828235828 58.380933083794 1 1 1
0.994882974285 0.000000000000 60.701843217872 1 1 1
2.416144366122 0.820565647166 63.022753351950 1 1 1
2.416144366122 2.461696941497 60.701843217872 1 1 1
0.994882974285 1.641131294331 65.343663486028 1 1 1
0.994882974285 3.282262588662 63.022753351950 1 1 1
2.416144366122 4.102828235828 65.343663486028 1 1 1
0.994882974285 0.000000000000 67.664573620106 1 1 1
2.416144366122 0.820565647166 69.985483754185 1 1 1
2.416144366122 2.461696941497 67.664573620106 1 1 1
0.994882974285 1.641131294331 72.306393888263 1 1 1
0.994882974285 3.282262588662 69.985483754185 1 1 1
2.416144366122 4.102828235828 72.306393888263 1 1 1
