Al1 
1.0
8.5870696695197124e-01 0.0000000000000000e+00 0.0000000000000000e+00 
5.1893704956323827e-01 1.1776894361646813e-02 0.0000000000000000e+00 
6.3519056323670364e-01 5.0285215989483009e-03 1.5158501840668978e-02 
Al 
1 
cartesian
   0.0000000000    0.0000000000    0.0000000000
