 H  C 
 1.0000000000000000
    10.2122412094213342    0.0000000000000000    0.0000000000000000
     0.1601665125881769    9.9503630922447250    0.0000000000000000
    -0.2068206291800771   -0.2826923256664139    9.9035030145884093
   H   C
   4   1
Cartesian
  5.4781900549626057  3.9317703432213267  3.5674834770577384
  3.9999241146534557  4.6790305109013985  4.3759708119991210
  5.6824132216007754  5.4948583858193585  4.3879964996015470
  5.3499307494743409  3.9734525146235775  5.3096707373534375
  5.1027140289564716  4.5450640478733835  4.3928722563161751
