Al12
1.0
   4.0999999999999996    0.0000000000000000    0.0000000000000000
   0.0000000000000000    4.0999999999999996    0.0000000000000000
   0.0000000000000000    0.0000000000000000   13.2500000000000018
Al
12
direct
   0.0000000000000000    0.0000000000000000    0.4226415094339623 Al
   0.5000000000000000    0.5000000000000000    0.1132075471698114 Al
   0.5000000000000000    0.0000000000000000    0.5773584905660377 Al
   0.5000000000000000    0.0000000000000000    0.2679245283018868 Al
   0.0000000000000000    0.0000000000000000    0.1132075471698114 Al
   0.0000000000000000    0.5000000000000000    0.8867924528301885 Al
   0.5000000000000000    0.5000000000000000    0.4226415094339623 Al
   0.0000000000000000    0.0000000000000000    0.7320754716981132 Al
   0.5000000000000000    0.0000000000000000    0.8867924528301885 Al
   0.0000000000000000    0.5000000000000000    0.5773584905660377 Al
   0.5000000000000000    0.5000000000000000    0.7320754716981132 Al
   0.0000000000000000    0.5000000000000000    0.2679245283018868 Al
