INPUT_PARAMETERS
#Parameters (1.General)
suffix              ABACUS #the name of main output directory
latname             test #the name of lattice name
atom_file           STRU #the filename of file containing atom positions
kpoint_file         KPT #the name of file containing k points
pseudo_dir          .// #the directory containing pseudo files
orbital_dir          #the directory containing orbital files
pseudo_type         auto #the type pseudo files
pseudo_rcut         15 #cut-off radius for radial integration
renormwithmesh      0 #0: use our own mesh to do radial renormalization; 1: use mesh as in QE
lmaxmax             2 #maximum of l channels used
dft_functional      none #exchange correlation functional
calculation         md #test; scf; relax; nscf; ienvelope; istate;
ntype               2 #atom species number
nspin               1 #1: single spin; 2: up and down spin; 4: noncollinear spin
nbands              0 #number of bands
nbands_sto          0 #number of stochastic bands
nbands_istate       5 #number of bands around Fermi level for istate calulation
nche_sto            0 #number of orders for Chebyshev expansion in stochastic DFT
symmetry            0 #turn symmetry on or off
set_vel             0 #read velocity from STRU or not
symmetry_prec       1e-05 #accuracy for symmetry
nelec               0 #input number of electrons
tot_magnetization   0 #total magnetization of the system

#Parameters (2.PW)
ecutwfc             90 ##energy cutoff for wave functions
diago_cg_maxiter    50 #max iteration number for cg
diago_cg_prec       1 #diago_cg_prec
ethr                0.01 #threshold for eigenvalues is cg electron iterations
dr2                 1e-09 #charge density error
start_wfc           atomic #start wave functions are from 'atomic' or 'file'
start_charge        atomic #start charge is from 'atomic' or file
charge_extrap       atomic #atomic; first-order; second-order; dm:coefficients of SIA
out_charge          0 #>0 output charge density for selected electron steps
out_potential       0 #output realspace potential
out_wf              0 #output wave functions
out_dos             0 #output energy and dos
out_band            0 #output energy and band structure
restart_save        0 #print to disk every step for restart
restart_load        0 #restart from disk
read_file_dir       auto #directory of files for reading
nx                  0 #number of points along x axis for FFT grid
ny                  0 #number of points along y axis for FFT grid
nz                  0 #number of points along z axis for FFT grid
cell_factor         1.2 #used in the construction of the pseudopotential tables

#Parameters (3.Relaxation)
ks_solver           cg #cg; dav; lapack; genelpa; hpseps; scalapack_gvx
niter               40 ##number of electron iterations
force_set           0 #output the force_set or not
nstep               3 #number of ion iteration steps
out_stru            0 #output the structure files after each ion step
force_thr           0.00077787 #force threshold, unit: Ry/Bohr
force_thr_ev        0.02 #force threshold, unit: eV/Angstrom
force_thr_ev2       0 #force invalid threshold, unit: eV/Angstrom
cg_threshold        0.5 #threshold for switching from cg to bfgs, unit: eV/Angstrom
stress_thr          0.01 #stress threshold
press1              0 #target pressure, unit: KBar
press2              0 #target pressure, unit: KBar
press3              0 #target pressure, unit: KBar
bfgs_w1             0.01 #wolfe condition 1 for bfgs
bfgs_w2             0.5 #wolfe condition 2 for bfgs
trust_radius_max    0.8 #maximal trust radius, unit: Bohr
trust_radius_min    1e-05 #minimal trust radius, unit: Bohr
trust_radius_ini    0.5 #initial trust radius, unit: Bohr
stress              1 #calculate the stress or not
fixed_axes          None #which axes are fixed
move_method         cg #bfgs; sd; cg; cg_bfgs;
out_level           m #ie(for electrons); i(for ions);
out_dm              0 #>0 output density matrix
out_descriptor      0 #>0 compute descriptor for deepks
lmax_descriptor     2 #>0 lmax used in descriptor for deepks

#Parameters (4.LCAO)
basis_type          pw #PW; LCAO in pw; LCAO
new_dm              1 #Type of density matrix; 0: old 1: new
search_radius       -1 #input search radius (Bohr)
search_pbc          1 #input periodic boundary condition
lcao_ecut           0 #energy cutoff for LCAO
lcao_dk             0.01 #delta k for 1D integration in LCAO
lcao_dr             0.01 #delta r for 1D integration in LCAO
lcao_rmax           30 #max R for 1D two-center integration table
out_hs              0 #output H and S matrix
out_hs2             0 #output H(R) and S(R) matrix
out_r               0 #output r(R) matrix
out_lowf            0 #ouput LCAO wave functions
bx                  1 #division of an element grid in FFT grid along x
by                  1 #division of an element grid in FFT grid along y
bz                  1 #division of an element grid in FFT grid along z

#Parameters (5.Smearing)
smearing            fixed #type of smearing: gauss; fd; fixed; mp; mp2; mv
sigma               0.01 #energy range for smearing

#Parameters (6.Charge Mixing)
mixing_type         pulay #plain; kerker; pulay; pulay-kerker; broyden
mixing_beta         0.4 #mixing parameter: 0 means no new charge
mixing_ndim         8 #mixing dimension in pulay
mixing_gg0          0 #mixing parameter in kerker

#Parameters (7.DOS)
dos_emin_ev         -15 #minimal range for dos
dos_emax_ev         15 #maximal range for dos
dos_edelta_ev       0.01 #delta energy for dos
dos_scale           0.01 #scale dos range by
dos_sigma           0.07 #gauss b coefficeinet(default=0.07)

#Parameters (8.Technique)
gamma_only          0 #gamma only, only used in LCAO basis
diago_proc          8 #number of proc used to diago
npool               1 #number of pools for k points, pw only
mem_saver           0 #memory saver for many k points used
printe              100 #print band energy for selectively ionic steps

#Parameters (9.SIAO)
selinv_npole        40 #number of selected poles
selinv_temp         2000 #temperature for Fermi-Dirac distribution
selinv_gap          0 #supposed gap in the calculation
selinv_deltae       2 #expected energy range
selinv_mu           -1 #chosen mu as Fermi energy
selinv_threshold    0.001 #threshold for calculated electron number
selinv_niter        50 #max number of steps to update mu

#Parameters (10.Molecular dynamics)
md_mdtype           1 #choose ensemble
md_potential        FP #choose potential
md_dt               1 #time step
mnhc                4 #number of Nose-Hoover chains
md_qmass            1 #mass of thermostat
md_tfirst           0 #temperature first
md_tlast            0 #temperature last
md_dumpmdfred       1 #The period to dump MD information for monitoring and restarting MD
md_mdoutpath        mdoutput #output path of md
md_rstmd            0 #whether restart
md_fixtemperature   1 #period to change temperature
md_ediff            0.0001 #parameter for constraining total energy change
md_ediffg           0.001 #parameter for constraining max force change
NVT_tau             0 #parameter for adjust effect of thermostat
NVT_control         1 #choose which thermostat used in NVT ensemble
rcut_lj             8.5 #cutoff radius of LJ potential
epsilon_lj          0.01032 #the value of epsilon for LJ potential
sigma_lj            3.405 #the value of sigma for LJ potential

#Parameters (11.Efield)
efield              0 #add electric field
edir                1 #add electric field
emaxpos             0.5 #maximal position of efield [0,1)
eopreg              0.1 #where sawlike potential decrease
eamp                0.001 #amplitute of the efield, unit is a.u.
eamp_v              0.05144 #amplitute of the efield, unit is V/A

#Parameters (12.Test)
out_alllog          0 #output information for each processor, when parallel
nurse               0 #for coders
colour              0 #for coders, make their live colourful
t_in_h              1 #calculate the kinetic energy or not
vl_in_h             1 #calculate the local potential or not
vnl_in_h            1 #calculate the nonlocal potential or not
vh_in_h             1 #calculate the hartree potential or not
vxc_in_h            1 #calculate the xc potential or not
vion_in_h           1 #calculate the local ionic potential or not
test_force          0 #test the force
test_stress         0 #test the force

#Parameters (13.Other Methods)
mlwf_flag           0 #turn MLWF on or off
opt_epsilon2        0 #calculate the dielectic function
opt_nbands          0 #number of bands for optical calculation

#Parameters (14.VdW Correction)
vdw_method          none #the method of calculating vdw (none ; d2 ; d3_0 ; d3_bj
vdw_s6              default #scale parameter of d2/d3_0/d3_bj
vdw_s8              default #scale parameter of d3_0/d3_bj
vdw_a1              default #damping parameter of d3_0/d3_bj
vdw_a2              default #damping parameter of d3_bj
vdw_d               20 #damping parameter of d2
vdw_abc             0 #third-order term?
vdw_C6_file         default #filename of C6
vdw_C6_unit         Jnm6/mol #unit of C6, Jnm6/mol or eVA6
vdw_R0_file         default #filename of R0
vdw_R0_unit         A #unit of R0, A or Bohr
vdw_model           radius #expression model of periodic structure, radius or period
vdw_radius          default #radius cutoff for periodic structure
vdw_radius_unit     Bohr #unit of radius cutoff for periodic structure
vdw_cn_thr          40 #radius cutoff for cn
vdw_cn_thr_unit     Bohr #unit of cn_thr, Bohr or Angstrom
vdw_period          3 3 3 #periods of periodic structure

#Parameters (15.spectrum)
spectral_type       None #the type of the calculated spectrum
spectral_method     0 #0: tddft(linear response)
kernel_type         rpa #the kernel type: rpa, tdlda ...
eels_method         0 #0: hilbert_transform method; 1: standard method
absorption_method   0 #0: vasp's method  1: pwscf's method
system              bulk #the calculate system
eta                 0.05 #eta(Ry)
domega              0.01 #domega(Ry)
nomega              300 #nomega
ecut_chi            1 #the dimension of chi matrix
q_start             0.1   0.1   0.1  #the position of the first q point in direct coordinate
q_direction         1   0   0  #the q direction
nq                  1 #the total number of qpoints for calculation
out_epsilon         1 #output epsilon or not
out_chi             0 #output chi or not
out_chi0            0 #output chi0 or not
fermi_level         0 #the change of the fermi_level(Ry)
coulomb_cutoff      0 # turn on the coulomb_cutoff or not
kmesh_interpolation 0 #calculting <i,0|j,R>
qcar                0   0   0  #(unit: 2PI/lat0)
ocp                 0 #change occupation or not
ocp_set             none #set occupation
lcao_box            10   10   10  #the scale for searching the existence of the overlap <i,0|j,R>
 mulliken           0 # mulliken  charge or not
intrasmear          0 #Eta
shift               0 #shift
metalcalc           0 #metal or not
eps_degauss         0.01 #degauss in calculating epsilon0
noncolin            0 #using non-collinear-spin
lspinorb            0 #consider the spin-orbit interaction

#Parameters (17.exx)
exx_hybrid_type     no #no, hf, pbe0, hse or opt_orb
exx_hybrid_alpha    0.25 #
exx_hse_omega       0.11 #
exx_separate_loop   1 #0 or 1
exx_hybrid_step     100 #
exx_lambda          0.3 #
exx_pca_threshold   0 #
exx_c_threshold     0 #
exx_v_threshold     0 #
exx_dm_threshold    0 #
exx_schwarz_threshold0 #
exx_cauchy_threshold0 #
exx_ccp_threshold   1e-08 #
exx_ccp_rmesh_times 10 #
exx_distribute_type htime #htime or kmeans1 or kmeans2
exx_opt_orb_lmax    0 #
exx_opt_orb_ecut    0 #
exx_opt_orb_tolerence0 #

#Parameters (17.tddft)
tddft               0 #calculate tddft or not
td_dr2              1e-09 #threshold for electronic iteration of tddft
td_dt               0.02 #time of ion step
td_force_dt         0.02 #time of force change
td_val_elec_01      1 #td_val_elec_01
td_val_elec_02      1 #td_val_elec_02
td_val_elec_03      1 #td_val_elec_03
td_vext             0 #add extern potential or not
td_vext_dire        1 #extern potential direction
td_timescale        0.5 #extern potential td_timescale
td_vexttype         1 #extern potential type
td_vextout          0 #output extern potential or not
td_dipoleout        0 #output dipole or not

#Parameters (18.berry_wannier)
berry_phase         0 #calculate berry phase or not
gdir                3 #calculate the polarization in the direction of the lattice std::vector
towannier90         0 #use wannier90 code interface or not
nnkpfile            seedname.nnkp #the wannier90 code nnkp file name
wannier_spin        up #calculate spin in wannier90 code interface
