ATOMIC_SPECIES
H 1.008 H_ONCV_PBE-1.0.upf
C 12.01 C_ONCV_PBE-1.0.upf

LATTICE_CONSTANT
1.88972612546

LATTICE_VECTORS
9.27069258481 0 0 #latvec1
0.0128238456952 9.56209520274 0 #latvec2
0.169560774735 -0.0300305282636 9.58609795568 #latvec3

ATOMIC_POSITIONS
Direct

H #label
0 #magnetism
4 #number of atoms
0.547461705223 0.400166750312 0.349585199322 1 1 1 0 0 0
0.387154932277 0.478943964961 0.433851040704 1 1 1 0 0 0
0.560703231408 0.571623190735 0.438580636423 1 1 1 0 0 0
0.532932139137 0.411873023092 0.541312594704 1 1 1 0 0 0

C #label
0 #magnetism
1 #number of atoms
0.507726212428 0.465642779417 0.440714011322 1 1 1 0 0 0
