# Input file for Stack Fault Energy surface of Aluminum
# Phillip Spear, 2012

# ------------------------ INITIALIZATION ----------------------
units		metal
dimension	3
boundary	p p s
atom_style	atomic
variable	latt_a		equal 4.04
variable	protct		equal 0.01
variable	x_displace	equal -1*(${latt_a}/sqrt(6))
variable	numb_x		equal 4
variable	numb_y		equal 4
variable	numb_z		equal 24
variable	size_x		equal ${latt_a}*${numb_x}*sqrt(6)/2
variable	size_y		equal ${latt_a}*${numb_y}*sqrt(2)/2
variable	size_z		equal ${latt_a}*${numb_z}*sqrt(3)/3
variable	size_hz		equal ${latt_a}*${numb_z}*sqrt(3)/3/2
variable	size_px		equal ${size_x}-${protct}
variable	size_py		equal ${size_y}-${protct}
variable	size_pz		equal ${size_z}-${protct}
variable	size_phz	equal ${size_hz}-${protct}
variable	size_zl		equal ${size_z}+5.0

# ----------------------- ATOM DEFINITION ----------------------
lattice		fcc ${latt_a}
region		1 block -${protct} ${size_px} -${protct} ${size_py} -${protct} ${size_phz} units box
region		2 block -${protct} ${size_px} -${protct} ${size_py} ${size_phz} ${size_pz} units box
region		whole block -${protct} ${size_px} -${protct} ${size_py} -${protct} ${size_zl} units box
create_box	1 whole
lattice		fcc ${latt_a} orient x 1 1 2 orient y -1 1 0 orient z -1 -1 1
create_atoms	1 region 1
lattice		fcc ${latt_a} orient x 1 1 2 orient y -1 1 0 orient z -1 -1 1
create_atoms	1 region 2
group		top region 1
group		bot region 2
mass		1 27
# ----------------------- FORCE FIELDS -----------------------
include		potential.mod
# ------------------------- before disp -----------------------
compute		peratom all pe/atom
compute		eatoms all reduce sum c_peratom
thermo		1
thermo_style	custom step pe pxx pyy pzz c_eatoms
dump		1 all custom 10 dump.relax type xs ys zs c_peratom fx fy fz

fix		1 all setforce 0 0 NULL
min_style	cg
minimize	1e-10 1e-10 1000 1000

run		0
variable	E equal "c_eatoms"
variable	Eo equal $E

# ------------------------- SETTINGS --------------------------

# ------------------------- Displacement -----------------------
displace_atoms	bot move ${x_displace} 0.0 0.0 units box

fix		1 all setforce 0 0 NULL
min_style	cg
minimize	1e-10 1e-10 1000 1000

run		0
variable	Ef equal "c_eatoms"
variable	Cf equal 1.60217657e-16
variable	A equal (${size_x}*${size_y})*1e-20
variable	SFE equal ((${Ef}-${Eo})*${Cf})/${A}

# SIMULATION DONE
#print ${x}
print "All done"
print "Initial energy of atoms = ${Eo} eV"
print "Final energy of atoms = ${Ef} eV"
print "Stacking-fault energy = ${SFE} mJ/m^2"
