pair_style	deepmd graph.000.pb graph.001.pb graph.002.pb graph.003.pb 10 model_devi.out
pair_coeff
