pair_style	deepmd graph.000.pb
pair_coeff
