POSCAR file written by OVITO
1
7.9543754 0.0 0.0
-0.222516 7.994565 0.0
-0.2015054 -0.0841861 7.6948376
H C 
4 1 
Cartesian
3.6664808 3.0926409 2.4802442
2.8500408 4.0723705 3.764154
4.4618607 4.5919709 3.2629638
4.2171507 3.0777307 4.3159342
3.8133605 3.6950007 3.416244
