 H  C 
 1.0000000000000000
    10.2539889687228918    0.0000000000000000    0.0000000000000000
     0.2456220367850704    9.9626606475679615    0.0000000000000000
    -0.1862627375995273   -0.2302818082830464    9.9839739529007012
   H   C
   4   1
Cartesian
  5.5386847802959478  3.9593359581002177  3.5960265565802705
  4.0631841329318403  4.7053458214974153  4.4178473446662121
  5.7627232343493366  5.5242751771761700  4.4266408951624019
  5.4241912289384935  4.0047027856194992  5.3572901939690762
  5.1835570815516112  4.5618710540979706  4.4316756140763927
