clear
units 	metal
dimension	3
boundary	p p p
atom_style	atomic
box         tilt large
read_data   conf.lmp
mass            1 95.940
neigh_modify    every 1 delay 0 check no
pair_style deepmd frozen_model.pb
pair_coeff * *
compute         mype all pe
thermo          100
thermo_style    custom step pe pxx pyy pzz pxy pxz pyz lx ly lz vol c_mype
dump            1 all custom 100 dump.relax id type xs ys zs fx fy fz
min_style       cg
fix             1 all setforce 0 0 NULL
minimize        0.000000e+00 1.000000e-10 5000 500000
variable        N equal count(all)
variable        V equal vol
variable        E equal "c_mype"
variable        tmplx equal lx
variable        tmply equal ly
variable        Pxx equal pxx
variable        Pyy equal pyy
variable        Pzz equal pzz
variable        Pxy equal pxy
variable        Pxz equal pxz
variable        Pyz equal pyz
variable        Epa equal ${E}/${N}
variable        Vpa equal ${V}/${N}
variable        AA equal (${tmplx}*${tmply})
print "All done"
print "Total number of atoms = ${N}"
print "Final energy per atoms = ${Epa}"
print "Final volume per atoms = ${Vpa}"
print "Final Base area = ${AA}"
print "Final Stress (xx yy zz xy xz yz) = ${Pxx} ${Pyy} ${Pzz} ${Pxy} ${Pxz} ${Pyz}"
