 H  C 
 1.0000000000000000
    10.1993119309330336    0.0000000000000000    0.0000000000000000
     0.2745053367417628   10.2244132284849520    0.0000000000000000
    -0.0122832821414796   -0.1304093058553984    9.9874926776910211
   H   C
   4   1
Cartesian
  5.5796271257933281  4.0983803313483200  3.5936412306902530
  4.1323074439836267  4.8774228922521701  4.4187039933145247
  5.8279755194339034  5.7200754506746048  4.4282268076545250
  5.4975235911951179  4.1691363231625616  5.3632633810871670
  5.2452836450389348  4.7359671279240025  4.4340346789776302
