 H  C 
 1.0000000000000000
    10.0069347769086345    0.0000000000000000    0.0000000000000000
     0.1226875341264903   10.1920291098043894    0.0000000000000000
     0.1866921855990495   -0.1718053000651943    9.8264049282679409
   H   C
   4   1
Cartesian
  5.4807754331806073  4.0768881403944750  3.5395664532159419
  4.0728500402007048  4.8414280798622995  4.3519431310092971
  5.7119128689824379  5.6871518693360725  4.3567519978874731
  5.4421866349369159  4.1289422453210207  5.2681148551250283
  5.1656306756432437  4.7046214987821795  4.3614007425823331
