 H  C 
 1.0000000000000000
     9.9669422126688225    0.0000000000000000    0.0000000000000000
    -0.0685908778761461    9.9196776465030929    0.0000000000000000
     0.1039920041435510    0.0673460129349409   10.0113751365713330
   H   C
   4   1
Cartesian
  5.3597660631077186  4.0428892313526728  3.6006556148980740
  3.9283736517918197  4.8209413149022415  4.4325791832136119
  5.5551340004209369  5.6412276627494853  4.4316919483766943
  5.2972186798483349  4.1462835022064164  5.3732504956799163
  5.0176939169003294  4.6793588212892665  4.4476490033338001
