Al1 
1.0
6.8594934473558355e-01 0.0000000000000000e+00 0.0000000000000000e+00 
9.6687449166074457e-01 2.3715030862177477e-02 0.0000000000000000e+00 
6.8762327046143379e-01 1.0364949378730682e-02 1.5799497242638412e-02 
Al 
1 
cartesian
   0.0000000000    0.0000000000    0.0000000000
