 H  C 
 1.0000000000000000
     9.9434473965244567    0.0000000000000000    0.0000000000000000
     0.2928815006462805    9.7387934786586445    0.0000000000000000
    -0.2291510198282683   -0.1110037965258202    9.9143202943573865
   H   C
   4   1
Cartesian
  5.3743642598350352  3.9087358708459750  3.5691117816424702
  3.9391651314412055  4.6473206003962968  4.3882321267633229
  5.5985140716743560  5.4527135417617396  4.3882936067491851
  5.2539574120192478  3.9690569289771598  5.3254477859805958
  5.0257974662724996  4.5173320072937502  4.4045653735867738
