ATOMIC_SPECIES
Cu 63.550 Cu_ONCV_PBE-1.0.upf
W 183.800 W_ONCV_PBE-1.0.upf

LATTICE_CONSTANT
1.8897261254578281

LATTICE_VECTORS
3.739371903516451 0.0 0.0 
-0.012370010864519755 3.7172038996075116 0.0 
0.0027465445147332227 -0.03456036851530346 3.7526720171021473 

ATOMIC_POSITIONS
Cartesian    # Cartesian(Unit is LATTICE_CONSTANT)
Cu
0.0
1
0.001666350705 0.005642052046 -0.008497743103 1 1 1
W
0.0
3
1.854390752610 1.867869764192 0.005706326670 1 1 1
0.006700955837 1.848307116011 1.859461587618 1 1 1
1.862938736336 0.003750521722 1.859473425885 1 1 1
