Mo500 
1.0
1.3677680000000001e+01 0.0000000000000000e+00 0.0000000000000000e+00 
-4.5592269999999999e+00 1.2895441000000000e+01 0.0000000000000000e+00 
0.0000000000000000e+00 0.0000000000000000e+00 6.2437561000000002e+01 
Mo 
500 
Cartesian
   0.0000000000    0.0000000000   10.0784213464
   0.9118453000    1.2895441000   12.1813808384
   2.7355360000    0.0000000000   10.0784213464
   3.6473813000    1.2895441000   12.1813808384
   5.4710720000    0.0000000000   10.0784213464
   6.3829173000    1.2895441000   12.1813808384
   8.2066080000    0.0000000000   10.0784213464
   9.1184533000    1.2895441000   12.1813808384
  10.9421440000    0.0000000000   10.0784213464
  11.8539893000    1.2895441000   12.1813808384
  -0.9118454000    2.5790882000   10.0784213464
  -0.0000001000    3.8686323000   12.1813808384
   1.8236906000    2.5790882000   10.0784213464
   2.7355359000    3.8686323000   12.1813808384
   4.5592266000    2.5790882000   10.0784213464
   5.4710719000    3.8686323000   12.1813808384
   7.2947626000    2.5790882000   10.0784213464
   8.2066079000    3.8686323000   12.1813808384
  10.0302986000    2.5790882000   10.0784213464
  10.9421439000    3.8686323000   12.1813808384
  -1.8236908000    5.1581764000   10.0784213464
  -0.9118455000    6.4477205000   12.1813808384
   0.9118452000    5.1581764000   10.0784213464
   1.8236905000    6.4477205000   12.1813808384
   3.6473812000    5.1581764000   10.0784213464
   4.5592265000    6.4477205000   12.1813808384
   6.3829172000    5.1581764000   10.0784213464
   7.2947625000    6.4477205000   12.1813808384
   9.1184532000    5.1581764000   10.0784213464
  10.0302985000    6.4477205000   12.1813808384
  -2.7355362000    7.7372646000   10.0784213464
  -1.8236909000    9.0268087000   12.1813808384
  -0.0000002000    7.7372646000   10.0784213464
   0.9118451000    9.0268087000   12.1813808384
   2.7355358000    7.7372646000   10.0784213464
   3.6473811000    9.0268087000   12.1813808384
   5.4710718000    7.7372646000   10.0784213464
   6.3829171000    9.0268087000   12.1813808384
   8.2066078000    7.7372646000   10.0784213464
   9.1184531000    9.0268087000   12.1813808384
  -3.6473816000   10.3163528000   10.0784213464
  -2.7355363000   11.6058969000   12.1813808384
  -0.9118456000   10.3163528000   10.0784213464
  -0.0000003000   11.6058969000   12.1813808384
   1.8236904000   10.3163528000   10.0784213464
   2.7355357000   11.6058969000   12.1813808384
   4.5592264000   10.3163528000   10.0784213464
   5.4710717000   11.6058969000   12.1813808384
   7.2947624000   10.3163528000   10.0784213464
   8.2066077000   11.6058969000   12.1813808384
   0.0000000000    0.0000000000   14.4152094583
   0.9118453000    1.2895441000   16.6428567597
   2.7355360000    0.0000000000   14.4152094583
   3.6473813000    1.2895441000   16.6428567597
   5.4710720000    0.0000000000   14.4152094583
   6.3829173000    1.2895441000   16.6428567597
   8.2066080000    0.0000000000   14.4152094583
   9.1184533000    1.2895441000   16.6428567597
  10.9421440000    0.0000000000   14.4152094583
  11.8539893000    1.2895441000   16.6428567597
  -0.9118454000    2.5790882000   14.4152094583
  -0.0000001000    3.8686323000   16.6428567597
   1.8236906000    2.5790882000   14.4152094583
   2.7355359000    3.8686323000   16.6428567597
   4.5592266000    2.5790882000   14.4152094583
   5.4710719000    3.8686323000   16.6428567597
   7.2947626000    2.5790882000   14.4152094583
   8.2066079000    3.8686323000   16.6428567597
  10.0302986000    2.5790882000   14.4152094583
  10.9421439000    3.8686323000   16.6428567597
  -1.8236908000    5.1581764000   14.4152094583
  -0.9118455000    6.4477205000   16.6428567597
   0.9118452000    5.1581764000   14.4152094583
   1.8236905000    6.4477205000   16.6428567597
   3.6473812000    5.1581764000   14.4152094583
   4.5592265000    6.4477205000   16.6428567597
   6.3829172000    5.1581764000   14.4152094583
   7.2947625000    6.4477205000   16.6428567597
   9.1184532000    5.1581764000   14.4152094583
  10.0302985000    6.4477205000   16.6428567597
  -2.7355362000    7.7372646000   14.4152094583
  -1.8236909000    9.0268087000   16.6428567597
  -0.0000002000    7.7372646000   14.4152094583
   0.9118451000    9.0268087000   16.6428567597
   2.7355358000    7.7372646000   14.4152094583
   3.6473811000    9.0268087000   16.6428567597
   5.4710718000    7.7372646000   14.4152094583
   6.3829171000    9.0268087000   16.6428567597
   8.2066078000    7.7372646000   14.4152094583
   9.1184531000    9.0268087000   16.6428567597
  -3.6473816000   10.3163528000   14.4152094583
  -2.7355363000   11.6058969000   16.6428567597
  -0.9118456000   10.3163528000   14.4152094583
  -0.0000003000   11.6058969000   16.6428567597
   1.8236904000   10.3163528000   14.4152094583
   2.7355357000   11.6058969000   16.6428567597
   4.5592264000   10.3163528000   14.4152094583
   5.4710717000   11.6058969000   16.6428567597
   7.2947624000   10.3163528000   14.4152094583
   8.2066077000   11.6058969000   16.6428567597
   0.0000000000    0.0000000000   18.8745625025
   0.9118453000    1.2895441000   21.1074545590
   2.7355360000    0.0000000000   18.8745625025
   3.6473813000    1.2895441000   21.1074545590
   5.4710720000    0.0000000000   18.8745625025
   6.3829173000    1.2895441000   21.1074545590
   8.2066080000    0.0000000000   18.8745625025
   9.1184533000    1.2895441000   21.1074545590
  10.9421440000    0.0000000000   18.8745625025
  11.8539893000    1.2895441000   21.1074545590
  -0.9118454000    2.5790882000   18.8745625025
  -0.0000001000    3.8686323000   21.1074545590
   1.8236906000    2.5790882000   18.8745625025
   2.7355359000    3.8686323000   21.1074545590
   4.5592266000    2.5790882000   18.8745625025
   5.4710719000    3.8686323000   21.1074545590
   7.2947626000    2.5790882000   18.8745625025
   8.2066079000    3.8686323000   21.1074545590
  10.0302986000    2.5790882000   18.8745625025
  10.9421439000    3.8686323000   21.1074545590
  -1.8236908000    5.1581764000   18.8745625025
  -0.9118455000    6.4477205000   21.1074545590
   0.9118452000    5.1581764000   18.8745625025
   1.8236905000    6.4477205000   21.1074545590
   3.6473812000    5.1581764000   18.8745625025
   4.5592265000    6.4477205000   21.1074545590
   6.3829172000    5.1581764000   18.8745625025
   7.2947625000    6.4477205000   21.1074545590
   9.1184532000    5.1581764000   18.8745625025
  10.0302985000    6.4477205000   21.1074545590
  -2.7355362000    7.7372646000   18.8745625025
  -1.8236909000    9.0268087000   21.1074545590
  -0.0000002000    7.7372646000   18.8745625025
   0.9118451000    9.0268087000   21.1074545590
   2.7355358000    7.7372646000   18.8745625025
   3.6473811000    9.0268087000   21.1074545590
   5.4710718000    7.7372646000   18.8745625025
   6.3829171000    9.0268087000   21.1074545590
   8.2066078000    7.7372646000   18.8745625025
   9.1184531000    9.0268087000   21.1074545590
  -3.6473816000   10.3163528000   18.8745625025
  -2.7355363000   11.6058969000   21.1074545590
  -0.9118456000   10.3163528000   18.8745625025
  -0.0000003000   11.6058969000   21.1074545590
   1.8236904000   10.3163528000   18.8745625025
   2.7355357000   11.6058969000   21.1074545590
   4.5592264000   10.3163528000   18.8745625025
   5.4710717000   11.6058969000   21.1074545590
   7.2947624000   10.3163528000   18.8745625025
   8.2066077000   11.6058969000   21.1074545590
   0.0000000000    0.0000000000   23.3422197423
   0.9118453000    1.2895441000   25.5764854251
   2.7355360000    0.0000000000   23.3422197423
   3.6473813000    1.2895441000   25.5764854251
   5.4710720000    0.0000000000   23.3422197423
   6.3829173000    1.2895441000   25.5764854251
   8.2066080000    0.0000000000   23.3422197423
   9.1184533000    1.2895441000   25.5764854251
  10.9421440000    0.0000000000   23.3422197423
  11.8539893000    1.2895441000   25.5764854251
  -0.9118454000    2.5790882000   23.3422197423
  -0.0000001000    3.8686323000   25.5764854251
   1.8236906000    2.5790882000   23.3422197423
   2.7355359000    3.8686323000   25.5764854251
   4.5592266000    2.5790882000   23.3422197423
   5.4710719000    3.8686323000   25.5764854251
   7.2947626000    2.5790882000   23.3422197423
   8.2066079000    3.8686323000   25.5764854251
  10.0302986000    2.5790882000   23.3422197423
  10.9421439000    3.8686323000   25.5764854251
  -1.8236908000    5.1581764000   23.3422197423
  -0.9118455000    6.4477205000   25.5764854251
   0.9118452000    5.1581764000   23.3422197423
   1.8236905000    6.4477205000   25.5764854251
   3.6473812000    5.1581764000   23.3422197423
   4.5592265000    6.4477205000   25.5764854251
   6.3829172000    5.1581764000   23.3422197423
   7.2947625000    6.4477205000   25.5764854251
   9.1184532000    5.1581764000   23.3422197423
  10.0302985000    6.4477205000   25.5764854251
  -2.7355362000    7.7372646000   23.3422197423
  -1.8236909000    9.0268087000   25.5764854251
  -0.0000002000    7.7372646000   23.3422197423
   0.9118451000    9.0268087000   25.5764854251
   2.7355358000    7.7372646000   23.3422197423
   3.6473811000    9.0268087000   25.5764854251
   5.4710718000    7.7372646000   23.3422197423
   6.3829171000    9.0268087000   25.5764854251
   8.2066078000    7.7372646000   23.3422197423
   9.1184531000    9.0268087000   25.5764854251
  -3.6473816000   10.3163528000   23.3422197423
  -2.7355363000   11.6058969000   25.5764854251
  -0.9118456000   10.3163528000   23.3422197423
  -0.0000003000   11.6058969000   25.5764854251
   1.8236904000   10.3163528000   23.3422197423
   2.7355357000   11.6058969000   25.5764854251
   4.5592264000   10.3163528000   23.3422197423
   5.4710717000   11.6058969000   25.5764854251
   7.2947624000   10.3163528000   23.3422197423
   8.2066077000   11.6058969000   25.5764854251
   0.0000000000    0.0000000000   27.8006986606
   0.9118453000    1.2895441000   30.0226641439
   2.7355360000    0.0000000000   27.8006986606
   3.6473813000    1.2895441000   30.0226641439
   5.4710720000    0.0000000000   27.8006986606
   6.3829173000    1.2895441000   30.0226641439
   8.2066080000    0.0000000000   27.8006986606
   9.1184533000    1.2895441000   30.0226641439
  10.9421440000    0.0000000000   27.8006986606
  11.8539893000    1.2895441000   30.0226641439
  -0.9118454000    2.5790882000   27.8006986606
  -0.0000001000    3.8686323000   30.0226641439
   1.8236906000    2.5790882000   27.8006986606
   2.7355359000    3.8686323000   30.0226641439
   4.5592266000    2.5790882000   27.8006986606
   5.4710719000    3.8686323000   30.0226641439
   7.2947626000    2.5790882000   27.8006986606
   8.2066079000    3.8686323000   30.0226641439
  10.0302986000    2.5790882000   27.8006986606
  10.9421439000    3.8686323000   30.0226641439
  -1.8236908000    5.1581764000   27.8006986606
  -0.9118455000    6.4477205000   30.0226641439
   0.9118452000    5.1581764000   27.8006986606
   1.8236905000    6.4477205000   30.0226641439
   3.6473812000    5.1581764000   27.8006986606
   4.5592265000    6.4477205000   30.0226641439
   6.3829172000    5.1581764000   27.8006986606
   7.2947625000    6.4477205000   30.0226641439
   9.1184532000    5.1581764000   27.8006986606
  10.0302985000    6.4477205000   30.0226641439
  -2.7355362000    7.7372646000   27.8006986606
  -1.8236909000    9.0268087000   30.0226641439
  -0.0000002000    7.7372646000   27.8006986606
   0.9118451000    9.0268087000   30.0226641439
   2.7355358000    7.7372646000   27.8006986606
   3.6473811000    9.0268087000   30.0226641439
   5.4710718000    7.7372646000   27.8006986606
   6.3829171000    9.0268087000   30.0226641439
   8.2066078000    7.7372646000   27.8006986606
   9.1184531000    9.0268087000   30.0226641439
  -3.6473816000   10.3163528000   27.8006986606
  -2.7355363000   11.6058969000   30.0226641439
  -0.9118456000   10.3163528000   27.8006986606
  -0.0000003000   11.6058969000   30.0226641439
   1.8236904000   10.3163528000   27.8006986606
   2.7355357000   11.6058969000   30.0226641439
   4.5592264000   10.3163528000   27.8006986606
   5.4710717000   11.6058969000   30.0226641439
   7.2947624000   10.3163528000   27.8006986606
   8.2066077000   11.6058969000   30.0226641439
   0.8206608000    0.0000000000   32.4148968561
   1.7325061000    1.2895441000   34.6368623394
   3.5561968000    0.0000000000   32.4148968561
   4.4680421000    1.2895441000   34.6368623394
   6.2917328000    0.0000000000   32.4148968561
   7.2035781000    1.2895441000   34.6368623394
   9.0272688000    0.0000000000   32.4148968561
   9.9391141000    1.2895441000   34.6368623394
  11.7628048000    0.0000000000   32.4148968561
  12.6746501000    1.2895441000   34.6368623394
  -0.0911846000    2.5790882000   32.4148968561
   0.8206607000    3.8686323000   34.6368623394
   2.6443514000    2.5790882000   32.4148968561
   3.5561967000    3.8686323000   34.6368623394
   5.3798874000    2.5790882000   32.4148968561
   6.2917327000    3.8686323000   34.6368623394
   8.1154234000    2.5790882000   32.4148968561
   9.0272687000    3.8686323000   34.6368623394
  10.8509594000    2.5790882000   32.4148968561
  11.7628047000    3.8686323000   34.6368623394
  -1.0030300000    5.1581764000   32.4148968561
  -0.0911847000    6.4477205000   34.6368623394
   1.7325060000    5.1581764000   32.4148968561
   2.6443513000    6.4477205000   34.6368623394
   4.4680420000    5.1581764000   32.4148968561
   5.3798873000    6.4477205000   34.6368623394
   7.2035780000    5.1581764000   32.4148968561
   8.1154233000    6.4477205000   34.6368623394
   9.9391140000    5.1581764000   32.4148968561
  10.8509593000    6.4477205000   34.6368623394
  -1.9148754000    7.7372646000   32.4148968561
  -1.0030301000    9.0268087000   34.6368623394
   0.8206606000    7.7372646000   32.4148968561
   1.7325059000    9.0268087000   34.6368623394
   3.5561966000    7.7372646000   32.4148968561
   4.4680419000    9.0268087000   34.6368623394
   6.2917326000    7.7372646000   32.4148968561
   7.2035779000    9.0268087000   34.6368623394
   9.0272686000    7.7372646000   32.4148968561
   9.9391139000    9.0268087000   34.6368623394
  -2.8267208000   10.3163528000   32.4148968561
  -1.9148755000   11.6058969000   34.6368623394
  -0.0911848000   10.3163528000   32.4148968561
   0.8206605000   11.6058969000   34.6368623394
   2.6443512000   10.3163528000   32.4148968561
   3.5561965000   11.6058969000   34.6368623394
   5.3798872000   10.3163528000   32.4148968561
   6.2917325000   11.6058969000   34.6368623394
   8.1154232000   10.3163528000   32.4148968561
   9.0272685000   11.6058969000   34.6368623394
   0.8206608000    0.0000000000   36.8610755749
   1.7325061000    1.2895441000   39.0953412577
   3.5561968000    0.0000000000   36.8610755749
   4.4680421000    1.2895441000   39.0953412577
   6.2917328000    0.0000000000   36.8610755749
   7.2035781000    1.2895441000   39.0953412577
   9.0272688000    0.0000000000   36.8610755749
   9.9391141000    1.2895441000   39.0953412577
  11.7628048000    0.0000000000   36.8610755749
  12.6746501000    1.2895441000   39.0953412577
  -0.0911846000    2.5790882000   36.8610755749
   0.8206607000    3.8686323000   39.0953412577
   2.6443514000    2.5790882000   36.8610755749
   3.5561967000    3.8686323000   39.0953412577
   5.3798874000    2.5790882000   36.8610755749
   6.2917327000    3.8686323000   39.0953412577
   8.1154234000    2.5790882000   36.8610755749
   9.0272687000    3.8686323000   39.0953412577
  10.8509594000    2.5790882000   36.8610755749
  11.7628047000    3.8686323000   39.0953412577
  -1.0030300000    5.1581764000   36.8610755749
  -0.0911847000    6.4477205000   39.0953412577
   1.7325060000    5.1581764000   36.8610755749
   2.6443513000    6.4477205000   39.0953412577
   4.4680420000    5.1581764000   36.8610755749
   5.3798873000    6.4477205000   39.0953412577
   7.2035780000    5.1581764000   36.8610755749
   8.1154233000    6.4477205000   39.0953412577
   9.9391140000    5.1581764000   36.8610755749
  10.8509593000    6.4477205000   39.0953412577
  -1.9148754000    7.7372646000   36.8610755749
  -1.0030301000    9.0268087000   39.0953412577
   0.8206606000    7.7372646000   36.8610755749
   1.7325059000    9.0268087000   39.0953412577
   3.5561966000    7.7372646000   36.8610755749
   4.4680419000    9.0268087000   39.0953412577
   6.2917326000    7.7372646000   36.8610755749
   7.2035779000    9.0268087000   39.0953412577
   9.0272686000    7.7372646000   36.8610755749
   9.9391139000    9.0268087000   39.0953412577
  -2.8267208000   10.3163528000   36.8610755749
  -1.9148755000   11.6058969000   39.0953412577
  -0.0911848000   10.3163528000   36.8610755749
   0.8206605000   11.6058969000   39.0953412577
   2.6443512000   10.3163528000   36.8610755749
   3.5561965000   11.6058969000   39.0953412577
   5.3798872000   10.3163528000   36.8610755749
   6.2917325000   11.6058969000   39.0953412577
   8.1154232000   10.3163528000   36.8610755749
   9.0272685000   11.6058969000   39.0953412577
   0.8206608000    0.0000000000   41.3301064410
   1.7325061000    1.2895441000   43.5629984975
   3.5561968000    0.0000000000   41.3301064410
   4.4680421000    1.2895441000   43.5629984975
   6.2917328000    0.0000000000   41.3301064410
   7.2035781000    1.2895441000   43.5629984975
   9.0272688000    0.0000000000   41.3301064410
   9.9391141000    1.2895441000   43.5629984975
  11.7628048000    0.0000000000   41.3301064410
  12.6746501000    1.2895441000   43.5629984975
  -0.0911846000    2.5790882000   41.3301064410
   0.8206607000    3.8686323000   43.5629984975
   2.6443514000    2.5790882000   41.3301064410
   3.5561967000    3.8686323000   43.5629984975
   5.3798874000    2.5790882000   41.3301064410
   6.2917327000    3.8686323000   43.5629984975
   8.1154234000    2.5790882000   41.3301064410
   9.0272687000    3.8686323000   43.5629984975
  10.8509594000    2.5790882000   41.3301064410
  11.7628047000    3.8686323000   43.5629984975
  -1.0030300000    5.1581764000   41.3301064410
  -0.0911847000    6.4477205000   43.5629984975
   1.7325060000    5.1581764000   41.3301064410
   2.6443513000    6.4477205000   43.5629984975
   4.4680420000    5.1581764000   41.3301064410
   5.3798873000    6.4477205000   43.5629984975
   7.2035780000    5.1581764000   41.3301064410
   8.1154233000    6.4477205000   43.5629984975
   9.9391140000    5.1581764000   41.3301064410
  10.8509593000    6.4477205000   43.5629984975
  -1.9148754000    7.7372646000   41.3301064410
  -1.0030301000    9.0268087000   43.5629984975
   0.8206606000    7.7372646000   41.3301064410
   1.7325059000    9.0268087000   43.5629984975
   3.5561966000    7.7372646000   41.3301064410
   4.4680419000    9.0268087000   43.5629984975
   6.2917326000    7.7372646000   41.3301064410
   7.2035779000    9.0268087000   43.5629984975
   9.0272686000    7.7372646000   41.3301064410
   9.9391139000    9.0268087000   43.5629984975
  -2.8267208000   10.3163528000   41.3301064410
  -1.9148755000   11.6058969000   43.5629984975
  -0.0911848000   10.3163528000   41.3301064410
   0.8206605000   11.6058969000   43.5629984975
   2.6443512000   10.3163528000   41.3301064410
   3.5561965000   11.6058969000   43.5629984975
   5.3798872000   10.3163528000   41.3301064410
   6.2917325000   11.6058969000   43.5629984975
   8.1154232000   10.3163528000   41.3301064410
   9.0272685000   11.6058969000   43.5629984975
   0.8206608000    0.0000000000   45.7947042403
   1.7325061000    1.2895441000   48.0223515417
   3.5561968000    0.0000000000   45.7947042403
   4.4680421000    1.2895441000   48.0223515417
   6.2917328000    0.0000000000   45.7947042403
   7.2035781000    1.2895441000   48.0223515417
   9.0272688000    0.0000000000   45.7947042403
   9.9391141000    1.2895441000   48.0223515417
  11.7628048000    0.0000000000   45.7947042403
  12.6746501000    1.2895441000   48.0223515417
  -0.0911846000    2.5790882000   45.7947042403
   0.8206607000    3.8686323000   48.0223515417
   2.6443514000    2.5790882000   45.7947042403
   3.5561967000    3.8686323000   48.0223515417
   5.3798874000    2.5790882000   45.7947042403
   6.2917327000    3.8686323000   48.0223515417
   8.1154234000    2.5790882000   45.7947042403
   9.0272687000    3.8686323000   48.0223515417
  10.8509594000    2.5790882000   45.7947042403
  11.7628047000    3.8686323000   48.0223515417
  -1.0030300000    5.1581764000   45.7947042403
  -0.0911847000    6.4477205000   48.0223515417
   1.7325060000    5.1581764000   45.7947042403
   2.6443513000    6.4477205000   48.0223515417
   4.4680420000    5.1581764000   45.7947042403
   5.3798873000    6.4477205000   48.0223515417
   7.2035780000    5.1581764000   45.7947042403
   8.1154233000    6.4477205000   48.0223515417
   9.9391140000    5.1581764000   45.7947042403
  10.8509593000    6.4477205000   48.0223515417
  -1.9148754000    7.7372646000   45.7947042403
  -1.0030301000    9.0268087000   48.0223515417
   0.8206606000    7.7372646000   45.7947042403
   1.7325059000    9.0268087000   48.0223515417
   3.5561966000    7.7372646000   45.7947042403
   4.4680419000    9.0268087000   48.0223515417
   6.2917326000    7.7372646000   45.7947042403
   7.2035779000    9.0268087000   48.0223515417
   9.0272686000    7.7372646000   45.7947042403
   9.9391139000    9.0268087000   48.0223515417
  -2.8267208000   10.3163528000   45.7947042403
  -1.9148755000   11.6058969000   48.0223515417
  -0.0911848000   10.3163528000   45.7947042403
   0.8206605000   11.6058969000   48.0223515417
   2.6443512000   10.3163528000   45.7947042403
   3.5561965000   11.6058969000   48.0223515417
   5.3798872000   10.3163528000   45.7947042403
   6.2917325000   11.6058969000   48.0223515417
   8.1154232000   10.3163528000   45.7947042403
   9.0272685000   11.6058969000   48.0223515417
   0.8206608000    0.0000000000   50.2561801616
   1.7325061000    1.2895441000   52.3591396536
   3.5561968000    0.0000000000   50.2561801616
   4.4680421000    1.2895441000   52.3591396536
   6.2917328000    0.0000000000   50.2561801616
   7.2035781000    1.2895441000   52.3591396536
   9.0272688000    0.0000000000   50.2561801616
   9.9391141000    1.2895441000   52.3591396536
  11.7628048000    0.0000000000   50.2561801616
  12.6746501000    1.2895441000   52.3591396536
  -0.0911846000    2.5790882000   50.2561801616
   0.8206607000    3.8686323000   52.3591396536
   2.6443514000    2.5790882000   50.2561801616
   3.5561967000    3.8686323000   52.3591396536
   5.3798874000    2.5790882000   50.2561801616
   6.2917327000    3.8686323000   52.3591396536
   8.1154234000    2.5790882000   50.2561801616
   9.0272687000    3.8686323000   52.3591396536
  10.8509594000    2.5790882000   50.2561801616
  11.7628047000    3.8686323000   52.3591396536
  -1.0030300000    5.1581764000   50.2561801616
  -0.0911847000    6.4477205000   52.3591396536
   1.7325060000    5.1581764000   50.2561801616
   2.6443513000    6.4477205000   52.3591396536
   4.4680420000    5.1581764000   50.2561801616
   5.3798873000    6.4477205000   52.3591396536
   7.2035780000    5.1581764000   50.2561801616
   8.1154233000    6.4477205000   52.3591396536
   9.9391140000    5.1581764000   50.2561801616
  10.8509593000    6.4477205000   52.3591396536
  -1.9148754000    7.7372646000   50.2561801616
  -1.0030301000    9.0268087000   52.3591396536
   0.8206606000    7.7372646000   50.2561801616
   1.7325059000    9.0268087000   52.3591396536
   3.5561966000    7.7372646000   50.2561801616
   4.4680419000    9.0268087000   52.3591396536
   6.2917326000    7.7372646000   50.2561801616
   7.2035779000    9.0268087000   52.3591396536
   9.0272686000    7.7372646000   50.2561801616
   9.9391139000    9.0268087000   52.3591396536
  -2.8267208000   10.3163528000   50.2561801616
  -1.9148755000   11.6058969000   52.3591396536
  -0.0911848000   10.3163528000   50.2561801616
   0.8206605000   11.6058969000   52.3591396536
   2.6443512000   10.3163528000   50.2561801616
   3.5561965000   11.6058969000   52.3591396536
   5.3798872000   10.3163528000   50.2561801616
   6.2917325000   11.6058969000   52.3591396536
   8.1154232000   10.3163528000   50.2561801616
   9.0272685000   11.6058969000   52.3591396536
