Mo500
1.0
13.677680 0.000000 0.000000
-4.559227 12.895441 0.000000
0.000000 0.000000 62.437561
Mo
500
direct
0.000000 0.000000 0.160160 Mo
0.100000 0.100000 0.195933 Mo
0.200000 -0.000000 0.160160 Mo
0.300000 0.100000 0.195933 Mo
0.400000 -0.000000 0.160160 Mo
0.500000 0.100000 0.195933 Mo
0.600000 -0.000000 0.160160 Mo
0.700000 0.100000 0.195933 Mo
0.800000 -0.000000 0.160160 Mo
0.900000 0.100000 0.195933 Mo
-0.000000 0.200000 0.160160 Mo
0.100000 0.300000 0.195933 Mo
0.200000 0.200000 0.160160 Mo
0.300000 0.300000 0.195933 Mo
0.400000 0.200000 0.160160 Mo
0.500000 0.300000 0.195933 Mo
0.600000 0.200000 0.160160 Mo
0.700000 0.300000 0.195933 Mo
0.800000 0.200000 0.160160 Mo
0.900000 0.300000 0.195933 Mo
-0.000000 0.400000 0.160160 Mo
0.100000 0.500000 0.195933 Mo
0.200000 0.400000 0.160160 Mo
0.300000 0.500000 0.195933 Mo
0.400000 0.400000 0.160160 Mo
0.500000 0.500000 0.195933 Mo
0.600000 0.400000 0.160160 Mo
0.700000 0.500000 0.195933 Mo
0.800000 0.400000 0.160160 Mo
0.900000 0.500000 0.195933 Mo
-0.000000 0.600000 0.160160 Mo
0.100000 0.700000 0.195933 Mo
0.200000 0.600000 0.160160 Mo
0.300000 0.700000 0.195933 Mo
0.400000 0.600000 0.160160 Mo
0.500000 0.700000 0.195933 Mo
0.600000 0.600000 0.160160 Mo
0.700000 0.700000 0.195933 Mo
0.800000 0.600000 0.160160 Mo
0.900000 0.700000 0.195933 Mo
-0.000000 0.800000 0.160160 Mo
0.100000 0.900000 0.195933 Mo
0.200000 0.800000 0.160160 Mo
0.300000 0.900000 0.195933 Mo
0.400000 0.800000 0.160160 Mo
0.500000 0.900000 0.195933 Mo
0.600000 0.800000 0.160160 Mo
0.700000 0.900000 0.195933 Mo
0.800000 0.800000 0.160160 Mo
0.900000 0.900000 0.195933 Mo
0.000000 -0.000000 0.231705 Mo
0.100000 0.100000 0.267478 Mo
0.200000 -0.000000 0.231705 Mo
0.300000 0.100000 0.267478 Mo
0.400000 -0.000000 0.231705 Mo
0.500000 0.100000 0.267478 Mo
0.600000 -0.000000 0.231705 Mo
0.700000 0.100000 0.267478 Mo
0.800000 -0.000000 0.231705 Mo
0.900000 0.100000 0.267478 Mo
0.000000 0.200000 0.231705 Mo
0.100000 0.300000 0.267478 Mo
0.200000 0.200000 0.231705 Mo
0.300000 0.300000 0.267478 Mo
0.400000 0.200000 0.231705 Mo
0.500000 0.300000 0.267478 Mo
0.600000 0.200000 0.231705 Mo
0.700000 0.300000 0.267478 Mo
0.800000 0.200000 0.231705 Mo
0.900000 0.300000 0.267478 Mo
0.000000 0.400000 0.231705 Mo
0.100000 0.500000 0.267478 Mo
0.200000 0.400000 0.231705 Mo
0.300000 0.500000 0.267478 Mo
0.400000 0.400000 0.231705 Mo
0.500000 0.500000 0.267478 Mo
0.600000 0.400000 0.231705 Mo
0.700000 0.500000 0.267478 Mo
0.800000 0.400000 0.231705 Mo
0.900000 0.500000 0.267478 Mo
-0.000000 0.600000 0.231705 Mo
0.100000 0.700000 0.267478 Mo
0.200000 0.600000 0.231705 Mo
0.300000 0.700000 0.267478 Mo
0.400000 0.600000 0.231705 Mo
0.500000 0.700000 0.267478 Mo
0.600000 0.600000 0.231705 Mo
0.700000 0.700000 0.267478 Mo
0.800000 0.600000 0.231705 Mo
0.900000 0.700000 0.267478 Mo
-0.000000 0.800000 0.231705 Mo
0.100000 0.900000 0.267478 Mo
0.200000 0.800000 0.231705 Mo
0.300000 0.900000 0.267478 Mo
0.400000 0.800000 0.231705 Mo
0.500000 0.900000 0.267478 Mo
0.600000 0.800000 0.231705 Mo
0.700000 0.900000 0.267478 Mo
0.800000 0.800000 0.231705 Mo
0.900000 0.900000 0.267478 Mo
0.000000 -0.000000 0.303251 Mo
0.100000 0.100000 0.339023 Mo
0.200000 -0.000000 0.303251 Mo
0.300000 0.100000 0.339023 Mo
0.400000 -0.000000 0.303251 Mo
0.500000 0.100000 0.339023 Mo
0.600000 -0.000000 0.303251 Mo
0.700000 0.100000 0.339023 Mo
0.800000 -0.000000 0.303251 Mo
0.900000 0.100000 0.339023 Mo
0.000000 0.200000 0.303251 Mo
0.100000 0.300000 0.339023 Mo
0.200000 0.200000 0.303251 Mo
0.300000 0.300000 0.339023 Mo
0.400000 0.200000 0.303251 Mo
0.500000 0.300000 0.339023 Mo
0.600000 0.200000 0.303251 Mo
0.700000 0.300000 0.339023 Mo
0.800000 0.200000 0.303251 Mo
0.900000 0.300000 0.339023 Mo
0.000000 0.400000 0.303251 Mo
0.100000 0.500000 0.339023 Mo
0.200000 0.400000 0.303251 Mo
0.300000 0.500000 0.339023 Mo
0.400000 0.400000 0.303251 Mo
0.500000 0.500000 0.339023 Mo
0.600000 0.400000 0.303251 Mo
0.700000 0.500000 0.339023 Mo
0.800000 0.400000 0.303251 Mo
0.900000 0.500000 0.339023 Mo
0.000000 0.600000 0.303251 Mo
0.100000 0.700000 0.339023 Mo
0.200000 0.600000 0.303251 Mo
0.300000 0.700000 0.339023 Mo
0.400000 0.600000 0.303251 Mo
0.500000 0.700000 0.339023 Mo
0.600000 0.600000 0.303251 Mo
0.700000 0.700000 0.339023 Mo
0.800000 0.600000 0.303251 Mo
0.900000 0.700000 0.339023 Mo
0.000000 0.800000 0.303251 Mo
0.100000 0.900000 0.339023 Mo
0.200000 0.800000 0.303251 Mo
0.300000 0.900000 0.339023 Mo
0.400000 0.800000 0.303251 Mo
0.500000 0.900000 0.339023 Mo
0.600000 0.800000 0.303251 Mo
0.700000 0.900000 0.339023 Mo
0.800000 0.800000 0.303251 Mo
0.900000 0.900000 0.339023 Mo
0.000000 -0.000000 0.374796 Mo
0.100000 0.100000 0.410568 Mo
0.200000 -0.000000 0.374796 Mo
0.300000 0.100000 0.410568 Mo
0.400000 -0.000000 0.374796 Mo
0.500000 0.100000 0.410568 Mo
0.600000 -0.000000 0.374796 Mo
0.700000 0.100000 0.410568 Mo
0.800000 -0.000000 0.374796 Mo
0.900000 0.100000 0.410568 Mo
0.000000 0.200000 0.374796 Mo
0.100000 0.300000 0.410568 Mo
0.200000 0.200000 0.374796 Mo
0.300000 0.300000 0.410568 Mo
0.400000 0.200000 0.374796 Mo
0.500000 0.300000 0.410568 Mo
0.600000 0.200000 0.374796 Mo
0.700000 0.300000 0.410568 Mo
0.800000 0.200000 0.374796 Mo
0.900000 0.300000 0.410568 Mo
0.000000 0.400000 0.374796 Mo
0.100000 0.500000 0.410568 Mo
0.200000 0.400000 0.374796 Mo
0.300000 0.500000 0.410568 Mo
0.400000 0.400000 0.374796 Mo
0.500000 0.500000 0.410568 Mo
0.600000 0.400000 0.374796 Mo
0.700000 0.500000 0.410568 Mo
0.800000 0.400000 0.374796 Mo
0.900000 0.500000 0.410568 Mo
0.000000 0.600000 0.374796 Mo
0.100000 0.700000 0.410568 Mo
0.200000 0.600000 0.374796 Mo
0.300000 0.700000 0.410568 Mo
0.400000 0.600000 0.374796 Mo
0.500000 0.700000 0.410568 Mo
0.600000 0.600000 0.374796 Mo
0.700000 0.700000 0.410568 Mo
0.800000 0.600000 0.374796 Mo
0.900000 0.700000 0.410568 Mo
0.000000 0.800000 0.374796 Mo
0.100000 0.900000 0.410568 Mo
0.200000 0.800000 0.374796 Mo
0.300000 0.900000 0.410568 Mo
0.400000 0.800000 0.374796 Mo
0.500000 0.900000 0.410568 Mo
0.600000 0.800000 0.374796 Mo
0.700000 0.900000 0.410568 Mo
0.800000 0.800000 0.374796 Mo
0.900000 0.900000 0.410568 Mo
0.000000 -0.000000 0.446341 Mo
0.100000 0.100000 0.482114 Mo
0.200000 -0.000000 0.446341 Mo
0.300000 0.100000 0.482114 Mo
0.400000 -0.000000 0.446341 Mo
0.500000 0.100000 0.482114 Mo
0.600000 -0.000000 0.446341 Mo
0.700000 0.100000 0.482114 Mo
0.800000 -0.000000 0.446341 Mo
0.900000 0.100000 0.482114 Mo
0.000000 0.200000 0.446341 Mo
0.100000 0.300000 0.482114 Mo
0.200000 0.200000 0.446341 Mo
0.300000 0.300000 0.482114 Mo
0.400000 0.200000 0.446341 Mo
0.500000 0.300000 0.482114 Mo
0.600000 0.200000 0.446341 Mo
0.700000 0.300000 0.482114 Mo
0.800000 0.200000 0.446341 Mo
0.900000 0.300000 0.482114 Mo
0.000000 0.400000 0.446341 Mo
0.100000 0.500000 0.482114 Mo
0.200000 0.400000 0.446341 Mo
0.300000 0.500000 0.482114 Mo
0.400000 0.400000 0.446341 Mo
0.500000 0.500000 0.482114 Mo
0.600000 0.400000 0.446341 Mo
0.700000 0.500000 0.482114 Mo
0.800000 0.400000 0.446341 Mo
0.900000 0.500000 0.482114 Mo
0.000000 0.600000 0.446341 Mo
0.100000 0.700000 0.482114 Mo
0.200000 0.600000 0.446341 Mo
0.300000 0.700000 0.482114 Mo
0.400000 0.600000 0.446341 Mo
0.500000 0.700000 0.482114 Mo
0.600000 0.600000 0.446341 Mo
0.700000 0.700000 0.482114 Mo
0.800000 0.600000 0.446341 Mo
0.900000 0.700000 0.482114 Mo
0.000000 0.800000 0.446341 Mo
0.100000 0.900000 0.482114 Mo
0.200000 0.800000 0.446341 Mo
0.300000 0.900000 0.482114 Mo
0.400000 0.800000 0.446341 Mo
0.500000 0.900000 0.482114 Mo
0.600000 0.800000 0.446341 Mo
0.700000 0.900000 0.482114 Mo
0.800000 0.800000 0.446341 Mo
0.900000 0.900000 0.482114 Mo
0.060000 1.000000 0.517886 Mo
0.160000 0.100000 0.553659 Mo
0.260000 1.000000 0.517886 Mo
0.360000 0.100000 0.553659 Mo
0.460000 1.000000 0.517886 Mo
0.560000 0.100000 0.553659 Mo
0.660000 1.000000 0.517886 Mo
0.760000 0.100000 0.553659 Mo
0.860000 1.000000 0.517886 Mo
0.960000 0.100000 0.553659 Mo
0.060000 0.200000 0.517886 Mo
0.160000 0.300000 0.553659 Mo
0.260000 0.200000 0.517886 Mo
0.360000 0.300000 0.553659 Mo
0.460000 0.200000 0.517886 Mo
0.560000 0.300000 0.553659 Mo
0.660000 0.200000 0.517886 Mo
0.760000 0.300000 0.553659 Mo
0.860000 0.200000 0.517886 Mo
0.960000 0.300000 0.553659 Mo
0.060000 0.400000 0.517886 Mo
0.160000 0.500000 0.553659 Mo
0.260000 0.400000 0.517886 Mo
0.360000 0.500000 0.553659 Mo
0.460000 0.400000 0.517886 Mo
0.560000 0.500000 0.553659 Mo
0.660000 0.400000 0.517886 Mo
0.760000 0.500000 0.553659 Mo
0.860000 0.400000 0.517886 Mo
0.960000 0.500000 0.553659 Mo
0.060000 0.600000 0.517886 Mo
0.160000 0.700000 0.553659 Mo
0.260000 0.600000 0.517886 Mo
0.360000 0.700000 0.553659 Mo
0.460000 0.600000 0.517886 Mo
0.560000 0.700000 0.553659 Mo
0.660000 0.600000 0.517886 Mo
0.760000 0.700000 0.553659 Mo
0.860000 0.600000 0.517886 Mo
0.960000 0.700000 0.553659 Mo
0.060000 0.800000 0.517886 Mo
0.160000 0.900000 0.553659 Mo
0.260000 0.800000 0.517886 Mo
0.360000 0.900000 0.553659 Mo
0.460000 0.800000 0.517886 Mo
0.560000 0.900000 0.553659 Mo
0.660000 0.800000 0.517886 Mo
0.760000 0.900000 0.553659 Mo
0.860000 0.800000 0.517886 Mo
0.960000 0.900000 0.553659 Mo
0.060000 1.000000 0.589432 Mo
0.160000 0.100000 0.625204 Mo
0.260000 1.000000 0.589432 Mo
0.360000 0.100000 0.625204 Mo
0.460000 1.000000 0.589432 Mo
0.560000 0.100000 0.625204 Mo
0.660000 1.000000 0.589432 Mo
0.760000 0.100000 0.625204 Mo
0.860000 1.000000 0.589432 Mo
0.960000 0.100000 0.625204 Mo
0.060000 0.200000 0.589432 Mo
0.160000 0.300000 0.625204 Mo
0.260000 0.200000 0.589432 Mo
0.360000 0.300000 0.625204 Mo
0.460000 0.200000 0.589432 Mo
0.560000 0.300000 0.625204 Mo
0.660000 0.200000 0.589432 Mo
0.760000 0.300000 0.625204 Mo
0.860000 0.200000 0.589432 Mo
0.960000 0.300000 0.625204 Mo
0.060000 0.400000 0.589432 Mo
0.160000 0.500000 0.625204 Mo
0.260000 0.400000 0.589432 Mo
0.360000 0.500000 0.625204 Mo
0.460000 0.400000 0.589432 Mo
0.560000 0.500000 0.625204 Mo
0.660000 0.400000 0.589432 Mo
0.760000 0.500000 0.625204 Mo
0.860000 0.400000 0.589432 Mo
0.960000 0.500000 0.625204 Mo
0.060000 0.600000 0.589432 Mo
0.160000 0.700000 0.625204 Mo
0.260000 0.600000 0.589432 Mo
0.360000 0.700000 0.625204 Mo
0.460000 0.600000 0.589432 Mo
0.560000 0.700000 0.625204 Mo
0.660000 0.600000 0.589432 Mo
0.760000 0.700000 0.625204 Mo
0.860000 0.600000 0.589432 Mo
0.960000 0.700000 0.625204 Mo
0.060000 0.800000 0.589432 Mo
0.160000 0.900000 0.625204 Mo
0.260000 0.800000 0.589432 Mo
0.360000 0.900000 0.625204 Mo
0.460000 0.800000 0.589432 Mo
0.560000 0.900000 0.625204 Mo
0.660000 0.800000 0.589432 Mo
0.760000 0.900000 0.625204 Mo
0.860000 0.800000 0.589432 Mo
0.960000 0.900000 0.625204 Mo
0.060000 1.000000 0.660977 Mo
0.160000 0.100000 0.696749 Mo
0.260000 1.000000 0.660977 Mo
0.360000 0.100000 0.696749 Mo
0.460000 1.000000 0.660977 Mo
0.560000 0.100000 0.696749 Mo
0.660000 1.000000 0.660977 Mo
0.760000 0.100000 0.696749 Mo
0.860000 1.000000 0.660977 Mo
0.960000 0.100000 0.696749 Mo
0.060000 0.200000 0.660977 Mo
0.160000 0.300000 0.696749 Mo
0.260000 0.200000 0.660977 Mo
0.360000 0.300000 0.696749 Mo
0.460000 0.200000 0.660977 Mo
0.560000 0.300000 0.696749 Mo
0.660000 0.200000 0.660977 Mo
0.760000 0.300000 0.696749 Mo
0.860000 0.200000 0.660977 Mo
0.960000 0.300000 0.696749 Mo
0.060000 0.400000 0.660977 Mo
0.160000 0.500000 0.696749 Mo
0.260000 0.400000 0.660977 Mo
0.360000 0.500000 0.696749 Mo
0.460000 0.400000 0.660977 Mo
0.560000 0.500000 0.696749 Mo
0.660000 0.400000 0.660977 Mo
0.760000 0.500000 0.696749 Mo
0.860000 0.400000 0.660977 Mo
0.960000 0.500000 0.696749 Mo
0.060000 0.600000 0.660977 Mo
0.160000 0.700000 0.696749 Mo
0.260000 0.600000 0.660977 Mo
0.360000 0.700000 0.696749 Mo
0.460000 0.600000 0.660977 Mo
0.560000 0.700000 0.696749 Mo
0.660000 0.600000 0.660977 Mo
0.760000 0.700000 0.696749 Mo
0.860000 0.600000 0.660977 Mo
0.960000 0.700000 0.696749 Mo
0.060000 0.800000 0.660977 Mo
0.160000 0.900000 0.696749 Mo
0.260000 0.800000 0.660977 Mo
0.360000 0.900000 0.696749 Mo
0.460000 0.800000 0.660977 Mo
0.560000 0.900000 0.696749 Mo
0.660000 0.800000 0.660977 Mo
0.760000 0.900000 0.696749 Mo
0.860000 0.800000 0.660977 Mo
0.960000 0.900000 0.696749 Mo
0.060000 1.000000 0.732522 Mo
0.160000 0.100000 0.768295 Mo
0.260000 1.000000 0.732522 Mo
0.360000 0.100000 0.768295 Mo
0.460000 1.000000 0.732522 Mo
0.560000 0.100000 0.768295 Mo
0.660000 1.000000 0.732522 Mo
0.760000 0.100000 0.768295 Mo
0.860000 1.000000 0.732522 Mo
0.960000 0.100000 0.768295 Mo
0.060000 0.200000 0.732522 Mo
0.160000 0.300000 0.768295 Mo
0.260000 0.200000 0.732522 Mo
0.360000 0.300000 0.768295 Mo
0.460000 0.200000 0.732522 Mo
0.560000 0.300000 0.768295 Mo
0.660000 0.200000 0.732522 Mo
0.760000 0.300000 0.768295 Mo
0.860000 0.200000 0.732522 Mo
0.960000 0.300000 0.768295 Mo
0.060000 0.400000 0.732522 Mo
0.160000 0.500000 0.768295 Mo
0.260000 0.400000 0.732522 Mo
0.360000 0.500000 0.768295 Mo
0.460000 0.400000 0.732522 Mo
0.560000 0.500000 0.768295 Mo
0.660000 0.400000 0.732522 Mo
0.760000 0.500000 0.768295 Mo
0.860000 0.400000 0.732522 Mo
0.960000 0.500000 0.768295 Mo
0.060000 0.600000 0.732522 Mo
0.160000 0.700000 0.768295 Mo
0.260000 0.600000 0.732522 Mo
0.360000 0.700000 0.768295 Mo
0.460000 0.600000 0.732522 Mo
0.560000 0.700000 0.768295 Mo
0.660000 0.600000 0.732522 Mo
0.760000 0.700000 0.768295 Mo
0.860000 0.600000 0.732522 Mo
0.960000 0.700000 0.768295 Mo
0.060000 0.800000 0.732522 Mo
0.160000 0.900000 0.768295 Mo
0.260000 0.800000 0.732522 Mo
0.360000 0.900000 0.768295 Mo
0.460000 0.800000 0.732522 Mo
0.560000 0.900000 0.768295 Mo
0.660000 0.800000 0.732522 Mo
0.760000 0.900000 0.768295 Mo
0.860000 0.800000 0.732522 Mo
0.960000 0.900000 0.768295 Mo
0.060000 1.000000 0.804067 Mo
0.160000 0.100000 0.839840 Mo
0.260000 1.000000 0.804067 Mo
0.360000 0.100000 0.839840 Mo
0.460000 1.000000 0.804067 Mo
0.560000 0.100000 0.839840 Mo
0.660000 1.000000 0.804067 Mo
0.760000 0.100000 0.839840 Mo
0.860000 1.000000 0.804067 Mo
0.960000 0.100000 0.839840 Mo
0.060000 0.200000 0.804067 Mo
0.160000 0.300000 0.839840 Mo
0.260000 0.200000 0.804067 Mo
0.360000 0.300000 0.839840 Mo
0.460000 0.200000 0.804067 Mo
0.560000 0.300000 0.839840 Mo
0.660000 0.200000 0.804067 Mo
0.760000 0.300000 0.839840 Mo
0.860000 0.200000 0.804067 Mo
0.960000 0.300000 0.839840 Mo
0.060000 0.400000 0.804067 Mo
0.160000 0.500000 0.839840 Mo
0.260000 0.400000 0.804067 Mo
0.360000 0.500000 0.839840 Mo
0.460000 0.400000 0.804067 Mo
0.560000 0.500000 0.839840 Mo
0.660000 0.400000 0.804067 Mo
0.760000 0.500000 0.839840 Mo
0.860000 0.400000 0.804067 Mo
0.960000 0.500000 0.839840 Mo
0.060000 0.600000 0.804067 Mo
0.160000 0.700000 0.839840 Mo
0.260000 0.600000 0.804067 Mo
0.360000 0.700000 0.839840 Mo
0.460000 0.600000 0.804067 Mo
0.560000 0.700000 0.839840 Mo
0.660000 0.600000 0.804067 Mo
0.760000 0.700000 0.839840 Mo
0.860000 0.600000 0.804067 Mo
0.960000 0.700000 0.839840 Mo
0.060000 0.800000 0.804067 Mo
0.160000 0.900000 0.839840 Mo
0.260000 0.800000 0.804067 Mo
0.360000 0.900000 0.839840 Mo
0.460000 0.800000 0.804067 Mo
0.560000 0.900000 0.839840 Mo
0.660000 0.800000 0.804067 Mo
0.760000 0.900000 0.839840 Mo
0.860000 0.800000 0.804067 Mo
0.960000 0.900000 0.839840 Mo
