Al 
 1.0000000000000000
     8.2797705159728547    0.0000000000000000    0.0000000000000000
    -0.1719719010892178    8.6486456546964234    0.0000000000000000
    -0.0010128078172081    0.1054655382171854    8.6490647580104696
  Al
  32
Cartesian
  4.1405303605609065 -0.0002311813140235 -0.0001044821347404
  6.2101270205420587  0.0274025201585026  2.1631618555812433
  1.9860812664680023  4.3565843685598704  2.1650983474684780
  4.0078083948451368  6.5615160044379568  6.4876604020180846
  2.0278390331727807  2.2135513637631408  4.3236944572396503
  4.0953786649781048  2.2492100294422253  6.4810339435242588
 -0.0875414497269289  4.3743834013208236  4.3201317850229435
  2.0736042567106190  0.0228671778411013  2.1619287357074879
  6.1696411956777881  2.2150078661563208  4.3251923877351022
  2.0231935553242515  2.1675246049264332 -0.0015871536767673
  2.0697228575465982  0.0796308216693133  6.4881338826802768
  6.0718728633823593  6.5345829673724909  4.3249524423528563
  6.1260924754969297  4.3544178531848186  2.1700539999418975
  6.0794537263845294  6.4852313292416728  0.0015781459271990
 -0.0432175780609881  2.1967100107205435  2.1657427325361875
 -0.1253958469750332  6.5189656427965783  2.1567228526414568
  0.0011475057041571  0.0057830702773709  0.0037842622675432
  1.9347714457652205  6.5376281930141227  4.3309171757107432
 -0.1318239919085722  6.5598304611092644  6.4942196366725833
  6.2126013464109491  0.0748052719901856  6.4830859016113873
  4.0566814116069088  4.3260615903766206  0.0036768623969541
  4.0552518198425744  4.3755027511287912  4.3233549827874995
  4.0931949504606155  2.1918523869765418  2.1567781105403996
 -0.0859138586713617  4.3244750685396607 -0.0001642409340360
  4.1410642367747599  0.0526367919882268  4.3269464189048445
  1.9824002179387932  4.4020860732001070  6.4886621332933405
  6.1694313242655578  2.1596032692396117  0.0024578050259201
 -0.0382210609417227  2.2399140383166798  6.4831900551393771
  4.0090325775580240  6.5139439803656938  2.1610083538493630
  1.9422012459502989  6.4887816039836386 -0.0014546717614078
 -0.0024327533265666  0.0493459591650801  4.3216382226840757
  6.1257798713385236  4.4062854392471484  6.4890048938443261
