POSCAR file written by OVITO
1
10.2577286 0.0 0.0
0.0 10.2577286 0.0
0.0 0.0 10.2577286
H C 
4 1 
Cartesian
5.1691537 5.7868438 4.9830136
6.2039537 4.5388737 4.5475836
4.7293039 4.764894 3.5896437
4.6551838 4.1011539 5.2526436
5.1531138 4.7913437 4.5583539
