 H  C 
 1.0000000000000000
    10.0827184279144682    0.0000000000000000    0.0000000000000000
    -0.0629222084785603    9.8662961835054475    0.0000000000000000
    -0.2926908063097901   -0.2220087552419780    9.8741267465436717
   H   C
   4   1
Cartesian
  5.2794148625306034  3.9200019151785415  3.5532833040768614
  3.8015228158688035  4.6618119721590796  4.3714247363281826
  5.4499631964995414  5.4797623977654277  4.3781367264164945
  5.1397861026630620  3.9689913163873070  5.3021973966895617
  4.9027042518576822  4.5288334885788606  4.3867762181787269
