PREC=A
ENCUT=600
ISYM=0
ALGO=fast
EDIFF=1.000000e-06
LREAL=T
NPAR=1
KPAR=1

NELMIN=4
ISIF=4
ISMEAR=1
SIGMA=0.25
IBRION=2

NSW=1000

LWAVE=F
LCHARG=F
PSTRESS=0

KSPACING=0.08
KGAMMA=.TRUE.
