POSCAR file written by OVITO
1
9.921404 0.0 0.0
-0.2775417 9.971532 0.0
-0.2513354 -0.1050044 9.5976849
H C 
4 1 
Cartesian
4.2558446 4.045054 3.4191377
4.0512147 5.1601939 4.8912478
5.4646845 5.3411241 3.8427478
5.2672148 3.828224 4.8747178
4.7492247 4.6194539 4.2788577
