 H  C 
 1.0000000000000000
    10.1580420314507567    0.0000000000000000    0.0000000000000000
    -0.2947794340343272    9.8470830972604855    0.0000000000000000
    -0.0250900467260279    0.2762656170932125   10.1694944447961202
   H   C
   4   1
Cartesian
  5.3209468740978627  4.0919782334136672  3.6605831375897124
  3.8390408678234849  4.8738373192253910  4.4946702900287638
  5.4760447594155979  5.6841388548451599  4.5097126372097645
  5.2359502548377730  4.2247039345028448  5.4622044215055094
  4.9496190024404099  4.7403213579567050  4.5162292029275104
