 H  C 
 1.0000000000000000
     9.9946584930339455    0.0000000000000000    0.0000000000000000
     0.2143909435415962    9.8544567037666475    0.0000000000000000
     0.2315609519667209    0.2839081257393641    9.9355028475778422
   H   C
   4   1
Cartesian
  5.5257200912329143  4.0972925889375018  3.5736021319841282
  4.1354741791180363  4.8814694450790395  4.4012098673003628
  5.7887968507583105  5.6894734059046250  4.4033733058520612
  5.4933937322548649  4.2380729178119729  5.3296307933826759
  5.2173536802308798  4.7427574556027725  4.4149644515146225
