 H  C 
 1.0000000000000000
     9.7907370808494001    0.0000000000000000    0.0000000000000000
    -0.3032843215436176   10.2107426796870495    0.0000000000000000
    -0.2392274142984312    0.0022112127313930    9.9832380901743978
   H   C
   4   1
Cartesian
  5.0514950640127445  4.1363872221850686  3.5958180467801317
  3.5986615800727839  4.9266897484727750  4.4225585341967202
  5.1743993675981441  5.7686090402746730  4.4268411054418886
  4.9201412822261901  4.2307225698699638  5.3551354665820519
  4.6616315741903893  4.7864179819710646  4.4401985882406878
