PREC=A
ENCUT=600
ISYM=0
SYMPREC=1e-10
ALGO=fast
EDIFF=1E-4
LREAL=A
NPAR=2
KPAR=2

ISTART=0
ICHARG=2
ISIF=2
ISMEAR=-1
SIGMA=0.8617330337217213
IBRION=0
MAXMIX=50
NBLOCK=1
KBLOCK=100

SMASS=0
POTIM=1
TEBEG=10000
TEEND=10000

NSW=4000

LWAVE=F
LCHARG=F
PSTRESS=0

KSPACING=0.32
KGAMMA=F

NBANDS=69
