Al1 
1.0
8.4054798625146632e-01 0.0000000000000000e+00 0.0000000000000000e+00 
6.6292027037099721e-01 2.0213000030988901e-02 0.0000000000000000e+00 
6.5074072860649845e-01 7.0429905975569664e-03 1.0835310572355412e-02 
Al 
1 
cartesian
   0.0000000000    0.0000000000    0.0000000000
