Al 
 1.0000000000000000
     8.5898428958538098    0.0000000000000000    0.0000000000000000
     0.0309441405711094    8.4546949858918694    0.0000000000000000
    -0.0097566977499483    0.1352429661398475    8.6069624601986590
  Al
  32
Cartesian
  6.4505233521585650  2.1132720745167752 -0.0002917768226800
  4.2856914127143968  0.0029095529351454  0.0017848218181846
  4.3222301043099822  6.3756488928484174  2.1447310524399770
  2.1717132096933316  6.3408284501098091  0.0012979398509617
  6.4660412818589155  6.3408284140534965  0.0008257072136749
  6.4415828204454799  0.0373236972123070  2.1567463274061964
  4.2931753316114944  0.0669786487775630  4.3027987284844418
  0.0194443480527756  6.4431701023804635  6.4497730612072282
  4.3060466719098018  4.2307551072148986 -0.0076141629479681
  6.4647457206166568  6.4159376018330612  4.3043627733846455
  6.4543672215286696  4.2616842707592282  2.1501340036161087
  0.0178633739715773  6.3773805485049309  2.1510337600328335
  0.0074211862640189  2.1388573002970750  2.1499882226977185
 -0.0090807869046197  0.0663696800456818  4.3063098880206878
  2.1561472240230288  2.1159006184690967  0.0003640614342978
  2.1666028329523659  6.4100635002351751  4.3039636538495722
  4.2938374404072981  2.2154389707323623  6.4518622611638312
  2.1607276454484490  4.2586788732587717  2.1431275751005945
  2.1545652702527165  2.1818588369923066  4.2971275692596187
  0.0154806579451338  4.2247284677183679  0.0023145646149488
  6.4488405336196610  2.1799745727408162  4.3004273550219212
 -0.0067627517102337  2.2110390808792646  6.4508074158614228
  2.1450165614049719  0.0337577346617454  2.1516105872138498
  4.3028135306784758  2.1478273727691706  2.1476429789225437
 -0.0016945267055740  0.0002113575755896  0.0011305540017342
  2.1361451381142724  0.0977829525904214  6.4504510973337910
  6.4334091010848260  0.1075410768182249  6.4607377349253454
  6.4486872853119488  4.3313683286982663  6.4579060261439194
  4.3048400221154921  4.2973032817718257  4.3031856299503035
  0.0120088951200463  4.2991197661156040  4.3076853311025882
  4.3123633082405872  6.4471478938493689  6.4530621833311201
  2.1555961162651558  4.3296495732327607  6.4545934390565591
