FCC : a = 4.100000 
4.0999999999999996
1.0000000000000000 0.0000000000000000 0.0000000000000000
0.0000000000000000 1.0000000000000000 0.0000000000000000
0.0000000000000000 0.0000000000000000 1.0000000000000000
Al
4
Direct
0.0000000000000000 0.0000000000000000 0.0000000000000000
0.5000000000000000 0.5000000000000000 0.0000000000000000
0.5000000000000000 0.0000000000000000 0.5000000000000000
0.0000000000000000 0.5000000000000000 0.5000000000000000
