ATOMIC_SPECIES
Al 26.982 Al.PD04.PBE.UPF

NUMERICAL_ORBITAL
./Al_gga_10au_100Ry_3s3p3d.orb

LATTICE_CONSTANT
1.889716

LATTICE_VECTORS
    1.42857    -2.47436     0.00000
    1.42857     2.47436     0.00000
    0.00000     0.00000     9.29698

ATOMIC_POSITIONS
Direct
Al
0.0
4
  0.0000000   0.0000000   0.5000000 1 1 1
  0.6666670   0.3333330   0.7500000 1 1 1
  0.0000000   0.0000000   0.0000000 1 1 1
  0.3333330   0.6666670   0.2500000 1 1 1
