INPUT_PARAMETERS
#Parameters (1.General)
suffix          ABACUS
calculation     relax
symmetry        1
pseudo_type     upf201

#Parameters (2.Iteration)
ecutwfc         60
scf_thr         1e-7
scf_nmax        100
#Parameters (3.Basis)
basis_type      pw

#Parameters (4.Smearing)
smearing_method         gauss
smearing_sigma          0.002

#Parameters (5.Mixing)
mixing_type             pulay
mixing_beta             0.3
ks_solver               cg

cal_stress 1
kspacing 0.2
