Al1 
1.0
8.8048895544046824e-01 0.0000000000000000e+00 0.0000000000000000e+00 
9.6154868911418356e-01 3.2033436833257448e-02 0.0000000000000000e+00 
9.7271788298409301e-01 8.3132749231043680e-03 1.6867644942364032e-02 
Al 
1 
cartesian
   0.0000000000    0.0000000000    0.0000000000
