 H  C 
 1.0000000000000000
    10.1376798471888474    0.0000000000000000    0.0000000000000000
    -0.2445110735641307   10.1512186388792323    0.0000000000000000
    -0.0244130611780281   -0.1360082012718862    9.7732067564842922
   H   C
   4   1
Cartesian
  5.3291304259137995  4.0666123507412664  3.5106425513487993
  3.8479115571455567  4.8343923770237804  4.3243412389149301
  5.4963286920755250  5.6831666797833904  4.3318307599278532
  5.2433588589654061  4.1357067412746789  5.2440171809186280
  4.9682181267250769  4.6950993082503496  4.3424319645920297
