 H  C 
 1.0000000000000000
     9.7654916824430522    0.0000000000000000    0.0000000000000000
    -0.0513825894090272    9.9779897835032774    0.0000000000000000
    -0.2372378285535390    0.1098929154373220    9.7465786619509451
   H   C
   4   1
Cartesian
  5.1362236689961858  4.0859803475047904  3.5095024095802514
  3.7046492045858783  4.8653744256709750  4.3135418901449221
  5.3016191000261585  5.6856485612084322  4.3163989397108891
  5.0122191014503397  4.1957655234050053  5.2282504608341451
  4.7767262311908825  4.7291881508578886  4.3238434753153854
