POSCAR file written by OVITO
1
9.7269926 0.0 0.0
0.2416106 10.2286406 0.0
0.2539499 0.2598322 10.2265844
H C 
4 1 
Cartesian
5.0989485 4.9030486 5.6938482
4.3030281 5.3866983 4.0732083
5.1592784 3.8558584 4.2578983
5.9883386 5.4200382 4.1337981
5.1127782 4.8995882 4.5613785
