Mo500 
1.0
1.3677680000000001e+01 0.0000000000000000e+00 0.0000000000000000e+00 
-4.5592269999999999e+00 1.2895441000000000e+01 0.0000000000000000e+00 
0.0000000000000000e+00 0.0000000000000000e+00 6.2437561000000002e+01 
Mo 
500 
Cartesian
   0.0000000000    0.0000000000   10.1160087581
   0.9118453000    1.2895441000   12.2189058126
   2.7355360000    0.0000000000   10.1160087581
   3.6473813000    1.2895441000   12.2189058126
   5.4710720000    0.0000000000   10.1160087581
   6.3829173000    1.2895441000   12.2189058126
   8.2066080000    0.0000000000   10.1160087581
   9.1184533000    1.2895441000   12.2189058126
  10.9421440000    0.0000000000   10.1160087581
  11.8539893000    1.2895441000   12.2189058126
  -0.9118454000    2.5790882000   10.1160087581
  -0.0000001000    3.8686323000   12.2189058126
   1.8236906000    2.5790882000   10.1160087581
   2.7355359000    3.8686323000   12.2189058126
   4.5592266000    2.5790882000   10.1160087581
   5.4710719000    3.8686323000   12.2189058126
   7.2947626000    2.5790882000   10.1160087581
   8.2066079000    3.8686323000   12.2189058126
  10.0302986000    2.5790882000   10.1160087581
  10.9421439000    3.8686323000   12.2189058126
  -1.8236908000    5.1581764000   10.1160087581
  -0.9118455000    6.4477205000   12.2189058126
   0.9118452000    5.1581764000   10.1160087581
   1.8236905000    6.4477205000   12.2189058126
   3.6473812000    5.1581764000   10.1160087581
   4.5592265000    6.4477205000   12.2189058126
   6.3829172000    5.1581764000   10.1160087581
   7.2947625000    6.4477205000   12.2189058126
   9.1184532000    5.1581764000   10.1160087581
  10.0302985000    6.4477205000   12.2189058126
  -2.7355362000    7.7372646000   10.1160087581
  -1.8236909000    9.0268087000   12.2189058126
  -0.0000002000    7.7372646000   10.1160087581
   0.9118451000    9.0268087000   12.2189058126
   2.7355358000    7.7372646000   10.1160087581
   3.6473811000    9.0268087000   12.2189058126
   5.4710718000    7.7372646000   10.1160087581
   6.3829171000    9.0268087000   12.2189058126
   8.2066078000    7.7372646000   10.1160087581
   9.1184531000    9.0268087000   12.2189058126
  -3.6473816000   10.3163528000   10.1160087581
  -2.7355363000   11.6058969000   12.2189058126
  -0.9118456000   10.3163528000   10.1160087581
  -0.0000003000   11.6058969000   12.2189058126
   1.8236904000   10.3163528000   10.1160087581
   2.7355357000   11.6058969000   12.2189058126
   4.5592264000   10.3163528000   10.1160087581
   5.4710717000   11.6058969000   12.2189058126
   7.2947624000   10.3163528000   10.1160087581
   8.2066077000   11.6058969000   12.2189058126
   0.0000000000    0.0000000000   14.4527344325
   0.9118453000    1.2895441000   16.6803817338
   2.7355360000    0.0000000000   14.4527344325
   3.6473813000    1.2895441000   16.6803817338
   5.4710720000    0.0000000000   14.4527344325
   6.3829173000    1.2895441000   16.6803817338
   8.2066080000    0.0000000000   14.4527344325
   9.1184533000    1.2895441000   16.6803817338
  10.9421440000    0.0000000000   14.4527344325
  11.8539893000    1.2895441000   16.6803817338
  -0.9118454000    2.5790882000   14.4527344325
  -0.0000001000    3.8686323000   16.6803817338
   1.8236906000    2.5790882000   14.4527344325
   2.7355359000    3.8686323000   16.6803817338
   4.5592266000    2.5790882000   14.4527344325
   5.4710719000    3.8686323000   16.6803817338
   7.2947626000    2.5790882000   14.4527344325
   8.2066079000    3.8686323000   16.6803817338
  10.0302986000    2.5790882000   14.4527344325
  10.9421439000    3.8686323000   16.6803817338
  -1.8236908000    5.1581764000   14.4527344325
  -0.9118455000    6.4477205000   16.6803817338
   0.9118452000    5.1581764000   14.4527344325
   1.8236905000    6.4477205000   16.6803817338
   3.6473812000    5.1581764000   14.4527344325
   4.5592265000    6.4477205000   16.6803817338
   6.3829172000    5.1581764000   14.4527344325
   7.2947625000    6.4477205000   16.6803817338
   9.1184532000    5.1581764000   14.4527344325
  10.0302985000    6.4477205000   16.6803817338
  -2.7355362000    7.7372646000   14.4527344325
  -1.8236909000    9.0268087000   16.6803817338
  -0.0000002000    7.7372646000   14.4527344325
   0.9118451000    9.0268087000   16.6803817338
   2.7355358000    7.7372646000   14.4527344325
   3.6473811000    9.0268087000   16.6803817338
   5.4710718000    7.7372646000   14.4527344325
   6.3829171000    9.0268087000   16.6803817338
   8.2066078000    7.7372646000   14.4527344325
   9.1184531000    9.0268087000   16.6803817338
  -3.6473816000   10.3163528000   14.4527344325
  -2.7355363000   11.6058969000   16.6803817338
  -0.9118456000   10.3163528000   14.4527344325
  -0.0000003000   11.6058969000   16.6803817338
   1.8236904000   10.3163528000   14.4527344325
   2.7355357000   11.6058969000   16.6803817338
   4.5592264000   10.3163528000   14.4527344325
   5.4710717000   11.6058969000   16.6803817338
   7.2947624000   10.3163528000   14.4527344325
   8.2066077000   11.6058969000   16.6803817338
   0.0000000000    0.0000000000   18.9121499142
   0.9118453000    1.2895441000   21.1451668458
   2.7355360000    0.0000000000   18.9121499142
   3.6473813000    1.2895441000   21.1451668458
   5.4710720000    0.0000000000   18.9121499142
   6.3829173000    1.2895441000   21.1451668458
   8.2066080000    0.0000000000   18.9121499142
   9.1184533000    1.2895441000   21.1451668458
  10.9421440000    0.0000000000   18.9121499142
  11.8539893000    1.2895441000   21.1451668458
  -0.9118454000    2.5790882000   18.9121499142
  -0.0000001000    3.8686323000   21.1451668458
   1.8236906000    2.5790882000   18.9121499142
   2.7355359000    3.8686323000   21.1451668458
   4.5592266000    2.5790882000   18.9121499142
   5.4710719000    3.8686323000   21.1451668458
   7.2947626000    2.5790882000   18.9121499142
   8.2066079000    3.8686323000   21.1451668458
  10.0302986000    2.5790882000   18.9121499142
  10.9421439000    3.8686323000   21.1451668458
  -1.8236908000    5.1581764000   18.9121499142
  -0.9118455000    6.4477205000   21.1451668458
   0.9118452000    5.1581764000   18.9121499142
   1.8236905000    6.4477205000   21.1451668458
   3.6473812000    5.1581764000   18.9121499142
   4.5592265000    6.4477205000   21.1451668458
   6.3829172000    5.1581764000   18.9121499142
   7.2947625000    6.4477205000   21.1451668458
   9.1184532000    5.1581764000   18.9121499142
  10.0302985000    6.4477205000   21.1451668458
  -2.7355362000    7.7372646000   18.9121499142
  -1.8236909000    9.0268087000   21.1451668458
  -0.0000002000    7.7372646000   18.9121499142
   0.9118451000    9.0268087000   21.1451668458
   2.7355358000    7.7372646000   18.9121499142
   3.6473811000    9.0268087000   21.1451668458
   5.4710718000    7.7372646000   18.9121499142
   6.3829171000    9.0268087000   21.1451668458
   8.2066078000    7.7372646000   18.9121499142
   9.1184531000    9.0268087000   21.1451668458
  -3.6473816000   10.3163528000   18.9121499142
  -2.7355363000   11.6058969000   21.1451668458
  -0.9118456000   10.3163528000   18.9121499142
  -0.0000003000   11.6058969000   21.1451668458
   1.8236904000   10.3163528000   18.9121499142
   2.7355357000   11.6058969000   21.1451668458
   4.5592264000   10.3163528000   18.9121499142
   5.4710717000   11.6058969000   21.1451668458
   7.2947624000   10.3163528000   18.9121499142
   8.2066077000   11.6058969000   21.1451668458
   0.0000000000    0.0000000000   23.3791203408
   0.9118453000    1.2895441000   25.6131362734
   2.7355360000    0.0000000000   23.3791203408
   3.6473813000    1.2895441000   25.6131362734
   5.4710720000    0.0000000000   23.3791203408
   6.3829173000    1.2895441000   25.6131362734
   8.2066080000    0.0000000000   23.3791203408
   9.1184533000    1.2895441000   25.6131362734
  10.9421440000    0.0000000000   23.3791203408
  11.8539893000    1.2895441000   25.6131362734
  -0.9118454000    2.5790882000   23.3791203408
  -0.0000001000    3.8686323000   25.6131362734
   1.8236906000    2.5790882000   23.3791203408
   2.7355359000    3.8686323000   25.6131362734
   4.5592266000    2.5790882000   23.3791203408
   5.4710719000    3.8686323000   25.6131362734
   7.2947626000    2.5790882000   23.3791203408
   8.2066079000    3.8686323000   25.6131362734
  10.0302986000    2.5790882000   23.3791203408
  10.9421439000    3.8686323000   25.6131362734
  -1.8236908000    5.1581764000   23.3791203408
  -0.9118455000    6.4477205000   25.6131362734
   0.9118452000    5.1581764000   23.3791203408
   1.8236905000    6.4477205000   25.6131362734
   3.6473812000    5.1581764000   23.3791203408
   4.5592265000    6.4477205000   25.6131362734
   6.3829172000    5.1581764000   23.3791203408
   7.2947625000    6.4477205000   25.6131362734
   9.1184532000    5.1581764000   23.3791203408
  10.0302985000    6.4477205000   25.6131362734
  -2.7355362000    7.7372646000   23.3791203408
  -1.8236909000    9.0268087000   25.6131362734
  -0.0000002000    7.7372646000   23.3791203408
   0.9118451000    9.0268087000   25.6131362734
   2.7355358000    7.7372646000   23.3791203408
   3.6473811000    9.0268087000   25.6131362734
   5.4710718000    7.7372646000   23.3791203408
   6.3829171000    9.0268087000   25.6131362734
   8.2066078000    7.7372646000   23.3791203408
   9.1184531000    9.0268087000   25.6131362734
  -3.6473816000   10.3163528000   23.3791203408
  -2.7355363000   11.6058969000   25.6131362734
  -0.9118456000   10.3163528000   23.3791203408
  -0.0000003000   11.6058969000   25.6131362734
   1.8236904000   10.3163528000   23.3791203408
   2.7355357000   11.6058969000   25.6131362734
   4.5592264000   10.3163528000   23.3791203408
   5.4710717000   11.6058969000   25.6131362734
   7.2947624000   10.3163528000   23.3791203408
   8.2066077000   11.6058969000   25.6131362734
   0.0000000000    0.0000000000   27.8416577006
   0.9118453000    1.2895441000   30.0676191878
   2.7355360000    0.0000000000   27.8416577006
   3.6473813000    1.2895441000   30.0676191878
   5.4710720000    0.0000000000   27.8416577006
   6.3829173000    1.2895441000   30.0676191878
   8.2066080000    0.0000000000   27.8416577006
   9.1184533000    1.2895441000   30.0676191878
  10.9421440000    0.0000000000   27.8416577006
  11.8539893000    1.2895441000   30.0676191878
  -0.9118454000    2.5790882000   27.8416577006
  -0.0000001000    3.8686323000   30.0676191878
   1.8236906000    2.5790882000   27.8416577006
   2.7355359000    3.8686323000   30.0676191878
   4.5592266000    2.5790882000   27.8416577006
   5.4710719000    3.8686323000   30.0676191878
   7.2947626000    2.5790882000   27.8416577006
   8.2066079000    3.8686323000   30.0676191878
  10.0302986000    2.5790882000   27.8416577006
  10.9421439000    3.8686323000   30.0676191878
  -1.8236908000    5.1581764000   27.8416577006
  -0.9118455000    6.4477205000   30.0676191878
   0.9118452000    5.1581764000   27.8416577006
   1.8236905000    6.4477205000   30.0676191878
   3.6473812000    5.1581764000   27.8416577006
   4.5592265000    6.4477205000   30.0676191878
   6.3829172000    5.1581764000   27.8416577006
   7.2947625000    6.4477205000   30.0676191878
   9.1184532000    5.1581764000   27.8416577006
  10.0302985000    6.4477205000   30.0676191878
  -2.7355362000    7.7372646000   27.8416577006
  -1.8236909000    9.0268087000   30.0676191878
  -0.0000002000    7.7372646000   27.8416577006
   0.9118451000    9.0268087000   30.0676191878
   2.7355358000    7.7372646000   27.8416577006
   3.6473811000    9.0268087000   30.0676191878
   5.4710718000    7.7372646000   27.8416577006
   6.3829171000    9.0268087000   30.0676191878
   8.2066078000    7.7372646000   27.8416577006
   9.1184531000    9.0268087000   30.0676191878
  -3.6473816000   10.3163528000   27.8416577006
  -2.7355363000   11.6058969000   30.0676191878
  -0.9118456000   10.3163528000   27.8416577006
  -0.0000003000   11.6058969000   30.0676191878
   1.8236904000   10.3163528000   27.8416577006
   2.7355357000   11.6058969000   30.0676191878
   4.5592264000   10.3163528000   27.8416577006
   5.4710717000   11.6058969000   30.0676191878
   7.2947624000   10.3163528000   27.8416577006
   8.2066077000   11.6058969000   30.0676191878
   0.4103304000    0.0000000000   32.3699418122
   1.3221757000    1.2895441000   34.5959032994
   3.1458664000    0.0000000000   32.3699418122
   4.0577117000    1.2895441000   34.5959032994
   5.8814024000    0.0000000000   32.3699418122
   6.7932477000    1.2895441000   34.5959032994
   8.6169384000    0.0000000000   32.3699418122
   9.5287837000    1.2895441000   34.5959032994
  11.3524744000    0.0000000000   32.3699418122
  12.2643197000    1.2895441000   34.5959032994
  -0.5015150000    2.5790882000   32.3699418122
   0.4103303000    3.8686323000   34.5959032994
   2.2340210000    2.5790882000   32.3699418122
   3.1458663000    3.8686323000   34.5959032994
   4.9695570000    2.5790882000   32.3699418122
   5.8814023000    3.8686323000   34.5959032994
   7.7050930000    2.5790882000   32.3699418122
   8.6169383000    3.8686323000   34.5959032994
  10.4406290000    2.5790882000   32.3699418122
  11.3524743000    3.8686323000   34.5959032994
  -1.4133604000    5.1581764000   32.3699418122
  -0.5015151000    6.4477205000   34.5959032994
   1.3221756000    5.1581764000   32.3699418122
   2.2340209000    6.4477205000   34.5959032994
   4.0577116000    5.1581764000   32.3699418122
   4.9695569000    6.4477205000   34.5959032994
   6.7932476000    5.1581764000   32.3699418122
   7.7050929000    6.4477205000   34.5959032994
   9.5287836000    5.1581764000   32.3699418122
  10.4406289000    6.4477205000   34.5959032994
  -2.3252058000    7.7372646000   32.3699418122
  -1.4133605000    9.0268087000   34.5959032994
   0.4103302000    7.7372646000   32.3699418122
   1.3221755000    9.0268087000   34.5959032994
   3.1458662000    7.7372646000   32.3699418122
   4.0577115000    9.0268087000   34.5959032994
   5.8814022000    7.7372646000   32.3699418122
   6.7932475000    9.0268087000   34.5959032994
   8.6169382000    7.7372646000   32.3699418122
   9.5287835000    9.0268087000   34.5959032994
  -3.2370512000   10.3163528000   32.3699418122
  -2.3252059000   11.6058969000   34.5959032994
  -0.5015152000   10.3163528000   32.3699418122
   0.4103301000   11.6058969000   34.5959032994
   2.2340208000   10.3163528000   32.3699418122
   3.1458661000   11.6058969000   34.5959032994
   4.9695568000   10.3163528000   32.3699418122
   5.8814021000   11.6058969000   34.5959032994
   7.7050928000   10.3163528000   32.3699418122
   8.6169381000   11.6058969000   34.5959032994
   0.4103304000    0.0000000000   36.8244247266
   1.3221757000    1.2895441000   39.0584406592
   3.1458664000    0.0000000000   36.8244247266
   4.0577117000    1.2895441000   39.0584406592
   5.8814024000    0.0000000000   36.8244247266
   6.7932477000    1.2895441000   39.0584406592
   8.6169384000    0.0000000000   36.8244247266
   9.5287837000    1.2895441000   39.0584406592
  11.3524744000    0.0000000000   36.8244247266
  12.2643197000    1.2895441000   39.0584406592
  -0.5015150000    2.5790882000   36.8244247266
   0.4103303000    3.8686323000   39.0584406592
   2.2340210000    2.5790882000   36.8244247266
   3.1458663000    3.8686323000   39.0584406592
   4.9695570000    2.5790882000   36.8244247266
   5.8814023000    3.8686323000   39.0584406592
   7.7050930000    2.5790882000   36.8244247266
   8.6169383000    3.8686323000   39.0584406592
  10.4406290000    2.5790882000   36.8244247266
  11.3524743000    3.8686323000   39.0584406592
  -1.4133604000    5.1581764000   36.8244247266
  -0.5015151000    6.4477205000   39.0584406592
   1.3221756000    5.1581764000   36.8244247266
   2.2340209000    6.4477205000   39.0584406592
   4.0577116000    5.1581764000   36.8244247266
   4.9695569000    6.4477205000   39.0584406592
   6.7932476000    5.1581764000   36.8244247266
   7.7050929000    6.4477205000   39.0584406592
   9.5287836000    5.1581764000   36.8244247266
  10.4406289000    6.4477205000   39.0584406592
  -2.3252058000    7.7372646000   36.8244247266
  -1.4133605000    9.0268087000   39.0584406592
   0.4103302000    7.7372646000   36.8244247266
   1.3221755000    9.0268087000   39.0584406592
   3.1458662000    7.7372646000   36.8244247266
   4.0577115000    9.0268087000   39.0584406592
   5.8814022000    7.7372646000   36.8244247266
   6.7932475000    9.0268087000   39.0584406592
   8.6169382000    7.7372646000   36.8244247266
   9.5287835000    9.0268087000   39.0584406592
  -3.2370512000   10.3163528000   36.8244247266
  -2.3252059000   11.6058969000   39.0584406592
  -0.5015152000   10.3163528000   36.8244247266
   0.4103301000   11.6058969000   39.0584406592
   2.2340208000   10.3163528000   36.8244247266
   3.1458661000   11.6058969000   39.0584406592
   4.9695568000   10.3163528000   36.8244247266
   5.8814021000   11.6058969000   39.0584406592
   7.7050928000   10.3163528000   36.8244247266
   8.6169381000   11.6058969000   39.0584406592
   0.4103304000    0.0000000000   41.2923941542
   1.3221757000    1.2895441000   43.5254110858
   3.1458664000    0.0000000000   41.2923941542
   4.0577117000    1.2895441000   43.5254110858
   5.8814024000    0.0000000000   41.2923941542
   6.7932477000    1.2895441000   43.5254110858
   8.6169384000    0.0000000000   41.2923941542
   9.5287837000    1.2895441000   43.5254110858
  11.3524744000    0.0000000000   41.2923941542
  12.2643197000    1.2895441000   43.5254110858
  -0.5015150000    2.5790882000   41.2923941542
   0.4103303000    3.8686323000   43.5254110858
   2.2340210000    2.5790882000   41.2923941542
   3.1458663000    3.8686323000   43.5254110858
   4.9695570000    2.5790882000   41.2923941542
   5.8814023000    3.8686323000   43.5254110858
   7.7050930000    2.5790882000   41.2923941542
   8.6169383000    3.8686323000   43.5254110858
  10.4406290000    2.5790882000   41.2923941542
  11.3524743000    3.8686323000   43.5254110858
  -1.4133604000    5.1581764000   41.2923941542
  -0.5015151000    6.4477205000   43.5254110858
   1.3221756000    5.1581764000   41.2923941542
   2.2340209000    6.4477205000   43.5254110858
   4.0577116000    5.1581764000   41.2923941542
   4.9695569000    6.4477205000   43.5254110858
   6.7932476000    5.1581764000   41.2923941542
   7.7050929000    6.4477205000   43.5254110858
   9.5287836000    5.1581764000   41.2923941542
  10.4406289000    6.4477205000   43.5254110858
  -2.3252058000    7.7372646000   41.2923941542
  -1.4133605000    9.0268087000   43.5254110858
   0.4103302000    7.7372646000   41.2923941542
   1.3221755000    9.0268087000   43.5254110858
   3.1458662000    7.7372646000   41.2923941542
   4.0577115000    9.0268087000   43.5254110858
   5.8814022000    7.7372646000   41.2923941542
   6.7932475000    9.0268087000   43.5254110858
   8.6169382000    7.7372646000   41.2923941542
   9.5287835000    9.0268087000   43.5254110858
  -3.2370512000   10.3163528000   41.2923941542
  -2.3252059000   11.6058969000   43.5254110858
  -0.5015152000   10.3163528000   41.2923941542
   0.4103301000   11.6058969000   43.5254110858
   2.2340208000   10.3163528000   41.2923941542
   3.1458661000   11.6058969000   43.5254110858
   4.9695568000   10.3163528000   41.2923941542
   5.8814021000   11.6058969000   43.5254110858
   7.7050928000   10.3163528000   41.2923941542
   8.6169381000   11.6058969000   43.5254110858
   0.4103304000    0.0000000000   45.7571792662
   1.3221757000    1.2895441000   47.9848265675
   3.1458664000    0.0000000000   45.7571792662
   4.0577117000    1.2895441000   47.9848265675
   5.8814024000    0.0000000000   45.7571792662
   6.7932477000    1.2895441000   47.9848265675
   8.6169384000    0.0000000000   45.7571792662
   9.5287837000    1.2895441000   47.9848265675
  11.3524744000    0.0000000000   45.7571792662
  12.2643197000    1.2895441000   47.9848265675
  -0.5015150000    2.5790882000   45.7571792662
   0.4103303000    3.8686323000   47.9848265675
   2.2340210000    2.5790882000   45.7571792662
   3.1458663000    3.8686323000   47.9848265675
   4.9695570000    2.5790882000   45.7571792662
   5.8814023000    3.8686323000   47.9848265675
   7.7050930000    2.5790882000   45.7571792662
   8.6169383000    3.8686323000   47.9848265675
  10.4406290000    2.5790882000   45.7571792662
  11.3524743000    3.8686323000   47.9848265675
  -1.4133604000    5.1581764000   45.7571792662
  -0.5015151000    6.4477205000   47.9848265675
   1.3221756000    5.1581764000   45.7571792662
   2.2340209000    6.4477205000   47.9848265675
   4.0577116000    5.1581764000   45.7571792662
   4.9695569000    6.4477205000   47.9848265675
   6.7932476000    5.1581764000   45.7571792662
   7.7050929000    6.4477205000   47.9848265675
   9.5287836000    5.1581764000   45.7571792662
  10.4406289000    6.4477205000   47.9848265675
  -2.3252058000    7.7372646000   45.7571792662
  -1.4133605000    9.0268087000   47.9848265675
   0.4103302000    7.7372646000   45.7571792662
   1.3221755000    9.0268087000   47.9848265675
   3.1458662000    7.7372646000   45.7571792662
   4.0577115000    9.0268087000   47.9848265675
   5.8814022000    7.7372646000   45.7571792662
   6.7932475000    9.0268087000   47.9848265675
   8.6169382000    7.7372646000   45.7571792662
   9.5287835000    9.0268087000   47.9848265675
  -3.2370512000   10.3163528000   45.7571792662
  -2.3252059000   11.6058969000   47.9848265675
  -0.5015152000   10.3163528000   45.7571792662
   0.4103301000   11.6058969000   47.9848265675
   2.2340208000   10.3163528000   45.7571792662
   3.1458661000   11.6058969000   47.9848265675
   4.9695568000   10.3163528000   45.7571792662
   5.8814021000   11.6058969000   47.9848265675
   7.7050928000   10.3163528000   45.7571792662
   8.6169381000   11.6058969000   47.9848265675
   0.4103304000    0.0000000000   50.2186551874
   1.3221757000    1.2895441000   52.3215522419
   3.1458664000    0.0000000000   50.2186551874
   4.0577117000    1.2895441000   52.3215522419
   5.8814024000    0.0000000000   50.2186551874
   6.7932477000    1.2895441000   52.3215522419
   8.6169384000    0.0000000000   50.2186551874
   9.5287837000    1.2895441000   52.3215522419
  11.3524744000    0.0000000000   50.2186551874
  12.2643197000    1.2895441000   52.3215522419
  -0.5015150000    2.5790882000   50.2186551874
   0.4103303000    3.8686323000   52.3215522419
   2.2340210000    2.5790882000   50.2186551874
   3.1458663000    3.8686323000   52.3215522419
   4.9695570000    2.5790882000   50.2186551874
   5.8814023000    3.8686323000   52.3215522419
   7.7050930000    2.5790882000   50.2186551874
   8.6169383000    3.8686323000   52.3215522419
  10.4406290000    2.5790882000   50.2186551874
  11.3524743000    3.8686323000   52.3215522419
  -1.4133604000    5.1581764000   50.2186551874
  -0.5015151000    6.4477205000   52.3215522419
   1.3221756000    5.1581764000   50.2186551874
   2.2340209000    6.4477205000   52.3215522419
   4.0577116000    5.1581764000   50.2186551874
   4.9695569000    6.4477205000   52.3215522419
   6.7932476000    5.1581764000   50.2186551874
   7.7050929000    6.4477205000   52.3215522419
   9.5287836000    5.1581764000   50.2186551874
  10.4406289000    6.4477205000   52.3215522419
  -2.3252058000    7.7372646000   50.2186551874
  -1.4133605000    9.0268087000   52.3215522419
   0.4103302000    7.7372646000   50.2186551874
   1.3221755000    9.0268087000   52.3215522419
   3.1458662000    7.7372646000   50.2186551874
   4.0577115000    9.0268087000   52.3215522419
   5.8814022000    7.7372646000   50.2186551874
   6.7932475000    9.0268087000   52.3215522419
   8.6169382000    7.7372646000   50.2186551874
   9.5287835000    9.0268087000   52.3215522419
  -3.2370512000   10.3163528000   50.2186551874
  -2.3252059000   11.6058969000   52.3215522419
  -0.5015152000   10.3163528000   50.2186551874
   0.4103301000   11.6058969000   52.3215522419
   2.2340208000   10.3163528000   50.2186551874
   3.1458661000   11.6058969000   52.3215522419
   4.9695568000   10.3163528000   50.2186551874
   5.8814021000   11.6058969000   52.3215522419
   7.7050928000   10.3163528000   50.2186551874
   8.6169381000   11.6058969000   52.3215522419
