 H  C 
 1.0000000000000000
    10.0471276050782592    0.0000000000000000    0.0000000000000000
     0.2734142836638641    9.9370142370413550    0.0000000000000000
    -0.2467045330017817   -0.1339887730622230   10.2074439769133427
   H   C
   4   1
Cartesian
  5.4127493817426480  3.9817988496394769  3.6739660686546549
  3.9621305401839515  4.7412869135023259  4.5121661463689584
  5.6383186219260866  5.5581898493082349  4.5217644694730703
  5.2900100209902892  4.0432518677741101  5.4748485416958355
  5.0632671037302259  4.5982914871925535  4.5332780745112720
