PREC=A
ENCUT=600
ISYM=0
ALGO=fast
EDIFF=1.000000e-06
LREAL=A
NPAR=1
KPAR=1

NELMIN=4
ISIF=2
ISMEAR=1
SIGMA=1.000000
IBRION=-1

NSW=0

LWAVE=F
LCHARG=F
PSTRESS=0

KSPACING=0.160000
KGAMMA=.FALSE.
