POSCAR file written by OVITO
1
6.6326952 0.0 0.0
0.1301009 6.5259342 0.0
0.0170968 -0.0156295 6.4869027
Al 
1
Cartesian
0 0 0 
