ATOMIC_SPECIES
H 1.008 H_ONCV_PBE-1.0.upf
C 12.01 C_ONCV_PBE-1.0.upf

LATTICE_CONSTANT
1.88972612546

LATTICE_VECTORS
9.70691437102 0 0 #latvec1
-0.281382603073 9.68406871255 0 #latvec2
0.158246266482 -0.163817668352 9.58297385826 #latvec3

ATOMIC_POSITIONS
Direct

H #label
0 #magnetism
4 #number of atoms
0.535461381214 0.40022105074 0.350517908729 1 1 1 0 0 0
0.384059480088 0.479432956913 0.433779873798 1 1 1 0 0 0
0.553450272577 0.569838705306 0.439037455701 1 1 1 0 0 0
0.521761060531 0.414199303256 0.541959017837 1 1 1 0 0 0

C #label
0 #magnetism
1 #number of atoms
0.498801629025 0.465841043252 0.44124373684 1 1 1 0 0 0
