%nproc=28
#force b3lyp/6-31g**

methane 

0  1
C           1.07422        -0.06034         0.02917
H           2.16642        -0.06034         0.02917
H           0.71015        -0.92887        -0.52401
H           0.71015         0.85299        -0.44641
H           0.71015        -0.10514         1.05793

