 H  C 
 1.0000000000000000
     9.7438942383523042    0.0000000000000000    0.0000000000000000
     0.2904835330177865    9.9589847688617006    0.0000000000000000
    -0.1112963794531397    0.1928795962396074    9.8715292657083324
   H   C
   4   1
Cartesian
  5.3073556220720999  4.1084135539725715  3.5497115768121987
  3.9152605174624511  4.8958358887686408  4.3673504113145816
  5.5386452961413841  5.7145625762366716  4.3776194596095941
  5.2122094485943231  4.2350277369412392  5.2936214104116166
  4.9806128520240129  4.7622478104271622  4.3902068637041509
