 H  C 
 1.0000000000000000
    10.2244809190587151    0.0000000000000000    0.0000000000000000
     0.0895949319453499    9.8147730249262732    0.0000000000000000
     0.0287334994521524   -0.0182280620804975    9.8273922160641867
   H   C
   4   1
Cartesian
  5.5331593670590831  3.9726569005236319  3.5365314196213866
  4.0717594770035763  4.7289506504751229  4.3565895259746634
  5.7515289151470217  5.5394098043475353  4.3509140850511256
  5.4593079027934754  4.0562383287582993  5.2755869845654733
  5.1899503251411634  4.5928008290968609  4.3612589897103584
