 H  C 
 1.0000000000000000
    10.1882191983678076    0.0000000000000000    0.0000000000000000
    -0.1664631780270226   10.2682385117628190    0.0000000000000000
    -0.2490325113550504   -0.2519680385853600   10.1873462039955456
   H   C
   4   1
Cartesian
  5.3078440816598498  4.0754837712903669  3.6646614943305913
  3.8129584192686070  4.8427242683484328  4.5114617987363914
  5.4680730657158056  5.6893545328813744  4.5188086871927347
  5.1849314469159102  4.1260731515036317  5.4628446839347049
  4.9190135018366412  4.7081834474312556  4.5296896203671055
