POSCAR file written by OVITO
1
10.0512924 0.0 0.0
0.1846287 9.8490486 0.0
-0.2667606 0.0745902 10.0416994
H C 
4 1 
Cartesian
4.7958961 3.7124305 5.032618
4.7704859 5.57619 4.984508
4.4890962 4.5687204 3.5221977
6.1122761 4.5486403 4.3772378
5.0190558 4.6477404 4.466918
