POSCAR file written by OVITO
1
10.3663826 0.0 0.0
7.3247976e-05 10.1706915 0.0
0.0664158 -0.1038218 10.5214215
H C 
4 1 
Cartesian
4.9708338 4.7668839 3.6163337
5.4559737 3.6365738 4.943854
4.3083439 4.9429842 5.2060337
6.0642138 5.4624238 4.896484
5.2622938 4.7080541 4.6891136
