Al1 
1.0
5.6880700105188797e-01 0.0000000000000000e+00 0.0000000000000000e+00 
9.3755473569041059e-01 2.7862428092373298e-02 0.0000000000000000e+00 
7.5094919110404246e-01 1.3658846496970233e-02 1.3537583670211236e-02 
Al 
1 
cartesian
   0.0000000000    0.0000000000    0.0000000000
