POSCAR file written by OVITO
1
10.2290058 0.0 0.0
7.2277284e-05 10.0359087 0.0
0.0655357 -0.1024459 10.3819904
H C 
4 1 
Cartesian
5.4673958 4.5234027 3.5766685
4.4789357 3.9058724 4.9445782
4.6213556 5.5737324 4.8040681
6.1312056 4.6172228 5.127408
5.1779656 4.6406126 4.6238585
