POSCAR file written by OVITO
1
11.7129841 0.0 0.0
0.1329382 11.9853564 0.0
0.2821138 0.3139328 11.7440663
H C 
4 1 
Cartesian
6.0952425 6.4833679 4.4285832
5.526352 4.7595682 4.8991232
5.5516224 6.1415281 6.1094637
7.1862221 5.5348282 5.4309936
6.0761919 5.7441979 5.2368035
