POSCAR file written by OVITO            
0.64
     8.0852460528260064    0.0000000700556454    0.0000000165920926
     0.0000000700459398    8.0852460812690730   -0.0000000878331783
     0.0000000165994710   -0.0000000878293815    8.0852460822851544
   Al
    32
Direct
  0.2500000074218809 -0.0000000006822529  0.2500000011219505
  0.0000000017515228  0.4999999968593779  0.5000000121259237
  0.0000000043319078  0.7499999907276940  0.7500000023288846
  0.5000000030383994  0.5000000063795264 -0.0000000001750512
  0.5000000069922398  0.2500000092556521  0.7499999925172053
  0.7500000002384054  0.5000000058460430  0.2499999970004410
  0.5000000100332991  0.2500000001020252  0.2500000061404412
  0.7499999967294295  0.4999999938307768  0.7500000077731870
 -0.0000000102302524  0.2500000011729165  0.2500000007828680
  0.2500000021034525  0.0000000026582450  0.7499999979035360
  0.2500000064022705  0.7499999919020213  0.0000000019913002
  0.5000000083231070 -0.0000000011197416  0.0000000014389411
  0.2500000097291175  0.5000000129780301  0.2499999975347162
  0.5000000055222689  0.0000000095334217  0.4999999965645718
  0.5000000034529869  0.7499999969981677  0.2499999981901819
  0.7499999985377536  0.7499999945443449  0.0000000074372283
 -0.0000000004748536  0.0000000005310409  0.0000000063786655
  0.2499999999857682  0.5000000028441646  0.7500000018075699
  0.0000000000448991  0.0000000048734801  0.5000000037789456
  0.2500000115215270  0.2500000006209973  0.5000000113478330
  0.7500000009516035  0.2500000011452493  0.5000000093672294
  0.2500000006602736  0.2500000097862060 -0.0000000026740404
 -0.0000000040407868  0.7499999975356930  0.2499999972984601
  0.7499999995103841  0.0000000012827216  0.2499999977659152
 -0.0000000041345229  0.2500000119032792  0.7499999956587747
  0.2500000030261135  0.7499999944555688  0.5000000026313640
  0.7499999954414514  0.2500000084865056 -0.0000000006412232
  0.5000000035346804  0.7499999971754691  0.7500000063111742
  0.7499999910768409  0.0000000040350684  0.7499999999698314
 -0.0000000013440370  0.5000000065441171 -0.0000000011351674
  0.7499999970723630  0.7499999983979078  0.4999999968129619
  0.5000000022954397  0.4999999989012168  0.5000000041503138
