H4 C1 
1.0
1.0256560185400000e+01 0.0000000000000000e+00 0.0000000000000000e+00 
-2.4531774970000000e-01 9.8128484190999998e+00 0.0000000000000000e+00 
-2.5710315189999999e-01 -3.0129123369999999e-01 9.8293471193999995e+00 
H C 
4 1 
Cartesian
   5.9687000000    4.6383900000    4.1575300000
   4.6429900000    5.1980600000    5.1279100000
   4.7622200000    3.4931800000    4.6941900000
   4.4575900000    4.6034900000    3.4124700000
   4.9073000000    4.4569300000    4.3732300000
