 H  C 
 1.0000000000000000
    10.0601825606168589    0.0000000000000000    0.0000000000000000
     0.1252106299056660    9.9672282139892570    0.0000000000000000
    -0.0200631665477445   -0.2242533787451083    9.8716698501074269
   H   C
   4   1
Cartesian
  5.4416146626522996  3.9597054836340537  3.5529200744873792
  4.0008297365993934  4.7157079390063190  4.3642656534481716
  5.6577032864668828  5.5325010382562079  4.3740341396384697
  5.3599204222338219  4.0082053216448621  5.2992023897761120
  5.1010074689761131  4.5700734946003623  4.3886927757682326
