POSCAR file written by OVITO
1
10.2754536 0.0 0.0
0.1166228 10.5143957 0.0
0.24749 0.2754039 10.3027191
H C 
4 1 
Cartesian
5.902236 5.8582888 5.1049104
5.6809864 4.0890384 4.8639804
5.4536267 5.1881685 3.4860401
4.2578163 5.1084385 4.8144903
5.3367262 5.0277586 4.5972204
