PREC=A
ENCUT=600
ISYM=0
SYMPREC=1e-10
ALGO=fast
EDIFF=1E-4
LREAL=A
NPAR=2
KPAR=2

ISTART=0
ICHARG=2
ISIF=2
ISMEAR=-1
SIGMA=0.08617330337217212
IBRION=0
MAXMIX=50
NBLOCK=1
KBLOCK=100

SMASS=0
POTIM=2
TEBEG=1000
TEEND=1000

NSW=2000

LWAVE=F
LCHARG=F
PSTRESS=0

KSPACING=0.32
KGAMMA=F
