PREC=A
ENCUT=400
ISYM=0
ALGO=normal
EDIFF=1.000000e-06
LREAL=A
NPAR=1
KPAR=1
NELM=120
NELMIN=4
ISIF=2
ISMEAR=0
SIGMA=0.050000
IBRION=-1

NSW=0

LWAVE=F
LCHARG=F
PSTRESS=0

KSPACING=2.000000
KGAMMA=.FALSE.
