POSCAR file written by OVITO
1
9.5274773 0.0 0.0
0.1089964 9.6689387 0.0
0.2420695 -0.2226202 9.3778973
H C 
4 1 
Cartesian
4.4820547 5.3263717 4.5781737
4.5172844 4.2223721 3.1611738
4.7838445 3.5830419 4.8450838
6.1053848 4.6417518 4.0606837
4.9479848 4.4097219 4.1794639
