 H  C 
 1.0000000000000000
    10.2545231100262075    0.0000000000000000    0.0000000000000000
    -0.0396285352982954    9.7289566417651585    0.0000000000000000
    -0.2122991223398139   -0.2857173570073713    9.9867913373111801
   H   C
   4   1
Cartesian
  5.4115427706987331  3.8409591110739543  3.5947545237886720
  3.9128772253736481  4.5677068928913345  4.4164629478571316
  5.5884839671247715  5.3699416558072066  4.4240239745788630
  5.2918270597524248  3.8762760451104179  5.3611648897612962
  5.0342114629890355  4.4348383344789966  4.4351715265297766
