POSCAR file written by OVITO
1
8.1610346 0.0 0.0
0.0926249 8.3508101 0.0
0.1965631 0.218733 8.1826916
H C 
4 1 
Cartesian
4.710557 4.8920556 3.4813159
4.1613874 3.4139753 2.7175861
3.2221573 4.2196655 4.0406156
4.7941876 3.3940454 4.3435655
4.2406073 4.0063853 3.6451462
