ATOMIC_SPECIES
Cu 63.550 Cu_ONCV_PBE-1.0.upf
W 183.800 W_ONCV_PBE-1.0.upf

LATTICE_CONSTANT
1.8897261254578281

LATTICE_VECTORS
3.722400001638995 0.0 0.0 
0.0 3.722400001638995 0.0 
0.0 0.0 3.722400001638995 

ATOMIC_POSITIONS
Cartesian    # Cartesian(Unit is LATTICE_CONSTANT)
Cu
0.0
3
0.000000000000 1.861200000819 1.861200000819 1 1 1
1.861200000819 0.000000000000 1.861200000819 1 1 1
1.861200000819 1.861200000819 0.000000000000 1 1 1
W
0.0
1
0.000000000000 0.000000000000 0.000000000000 1 1 1
