POSCAR file written by OVITO
1
9.8108931 0.0 0.0
-0.063549 10.2088375 0.0
0.2796522 0.2603946 9.9000568
H C 
4 1 
Cartesian
5.5391073 4.3323598 3.564627
3.9768372 4.7914801 4.201797
5.2978172 5.9379102 4.4719367
5.3381171 4.4675098 5.3712769
5.0318875 4.8856398 4.4073467
