POSCAR file written by OVITO
1
24.9207288 0.0 0.0
0.7084402 25.5209809 0.0
-0.0348667 0.2874386 26.0794106
H C 
4 1 
Cartesian
13.0159702 11.083477 11.1877871
11.9637794 12.0970173 12.2107563
12.7523403 12.7511177 10.7696972
13.7313805 12.2685375 12.2683268
12.8591806 12.0523577 11.6158571
