Al1 
1.0
6.4107824073770014e-01 0.0000000000000000e+00 0.0000000000000000e+00 
5.9514813102041653e-01 1.4122096000048717e-02 0.0000000000000000e+00 
7.9753239756842043e-01 -3.1662388773523020e-03 1.4910307577850239e-02 
Al 
1 
cartesian
   0.0000000000    0.0000000000    0.0000000000
