Li40
1.0
        6.7885999680         0.0000000000         0.0000000000
        0.0000000000         8.0621995926         0.0000000000
        0.0000000000         0.0000000000         5.0141000748
   Li
   40
Direct
     0.093139998         0.116310003         0.000000000
     0.906859976         0.883689982         0.000000000
     0.593140024         0.383690012         0.000000000
     0.406860011         0.616310018         0.000000000
     0.093139998         0.616310018         0.500000000
     0.906859976         0.383690012         0.500000000
     0.593140024         0.883689982         0.500000000
     0.406860011         0.116310003         0.500000000
     0.862999962         0.903139985         0.313789986
     0.137000020         0.096860000         0.313789986
     0.362999927         0.596860015         0.313789986
     0.637000038         0.403140015         0.313789986
     0.862999962         0.403140015         0.813789962
     0.137000020         0.596860015         0.813789962
     0.362999927         0.096860000         0.813789962
     0.637000038         0.903139985         0.813789962
     0.967830033         0.116910005         0.594070039
     0.032169997         0.883090018         0.594070039
     0.467829928         0.383089988         0.594070039
     0.532170002         0.616909982         0.594070039
     0.967830033         0.616909982         0.094069955
     0.032169997         0.383089988         0.094069955
     0.467829928         0.883090018         0.094069955
     0.532170002         0.116910005         0.094069955
     0.351290002         0.268080003         0.175870004
     0.648710033         0.731919997         0.175870004
     0.851289967         0.231919997         0.175870004
     0.148710016         0.768080003         0.175870004
     0.351290002         0.768080003         0.675869992
     0.648710033         0.231919997         0.675869992
     0.851289967         0.731919997         0.675869992
     0.148710016         0.268080003         0.675869992
     0.290069992         0.911850003         0.377050007
     0.709930008         0.088150004         0.377050007
     0.790069992         0.588149997         0.377050007
     0.209930008         0.411850003         0.377050007
     0.290069992         0.411850003         0.877050078
     0.709930008         0.588149997         0.877050078
     0.790069992         0.088150004         0.877050078
     0.209930008         0.911850003         0.877050078
