POSCAR file written by OVITO
1
9.3834744 0.0 0.0
0.1064991 9.6016751 0.0
0.2260062 0.251497 9.4083729
H C 
4 1 
Cartesian
4.2417364 5.0433278 5.0306973
5.9279666 4.546928 4.4821072
4.7809963 5.1467676 3.319067
4.5575366 3.5666378 4.0373473
4.8682866 4.6065579 4.1826773
