POSCAR file written by OVITO
1
7.0376387 0.0 0.0
-0.1968712 7.0731955 0.0
-0.178282 -0.0744837 6.808012
H C 
4 1 
Cartesian
2.362392 3.112016 2.713121
3.4894419 3.9348062 3.9039012
3.891942 3.6983164 2.1849811
3.7324019 2.3037262 3.2055712
3.371212 3.2755063 3.0410709
