ATOMIC_SPECIES
H 1.008 H_ONCV_PBE-1.0.upf
C 12.010 C_ONCV_PBE-1.0.upf

LATTICE_CONSTANT
1.8897261254578281

LATTICE_VECTORS
9.37644206717057 0.0 0.0 
-0.014813577222070317 9.326697659660574 0.0 
-0.1523571207181622 -0.1557268613107592 9.522274826700935 

ATOMIC_POSITIONS
Cartesian    # Cartesian(Unit is LATTICE_CONSTANT)
H
0.0
4
5.112066187378 3.862243345891 3.417909125283 1 1 1
3.744498473484 4.562973797398 4.166757218402 1 1 1
5.245366521375 5.379019566172 4.209449753704 1 1 1
5.018512728297 3.953726845718 5.124105837070 1 1 1
C
0.0
1
4.782575995526 4.437421837856 4.229112966039 1 1 1

NUMERICAL_ORBITAL
H_gga_8au_60Ry_2s1p.orb
C_gga_8au_60Ry_2s2p1d.orb

NUMERICAL_DESCRIPTOR
jle.orb
