ATOMIC_SPECIES
H 1.008 H_ONCV_PBE-1.0.upf
C 12.010 C_ONCV_PBE-1.0.upf

LATTICE_CONSTANT
1.8897261254578281

LATTICE_VECTORS
9.706914371019787 0.0 0.0 
-0.2813826030727322 9.684068712553056 0.0 
0.1582462664821918 -0.16381766835153533 9.582973858264781 

ATOMIC_POSITIONS
Cartesian    # Cartesian(Unit is LATTICE_CONSTANT)
H
0.0
4
5.096428397218 3.892435586573 3.461810245711 1 1 1
3.799158121761 4.554674552629 4.165563541923 1 1 1
5.223899470809 5.330330533668 4.211137245440 1 1 1
5.005416874557 3.981655544542 5.086650081968 1 1 1
C
0.0
1
4.779871851926 4.438976241080 4.227727834445 1 1 1
