POSCAR file written by OVITO
1
13.894968 0.0 0.0
-0.1003078 13.832222 0.0
0.0050198 -0.2999328 13.6373549
H C 
4 1 
Cartesian
6.5935965 7.0031457 5.2799173
6.3380466 6.5008655 6.931387
8.0059566 6.4924455 6.2366772
6.8943764 5.2185955 5.855617
6.9472966 6.3328457 6.075007
